     Program PWSCF v.6.3MaX starts on 14Feb2020 at  9:17:46

     R & G space division:  proc/nbgrp/npool/nimage =       4
     Waiting for input...
     Reading input from standard input

     Current dimensions of program PWSCF are:
     Max number of different atomic species (ntypx) = 10
     Max number of k-points (npk) =  40000
     Max angular momentum in pseudopotentials (lmaxx) =  3

     Subspace diagonalization in iterative solution of the eigenvalue problem:
     a serial algorithm will be used

     bravais-lattice index     =            0
     lattice parameter (alat)  =      20.6591  a.u.
     unit-cell volume          =    8817.2783 (a.u.)^3
     number of atoms/cell      =           64
     number of atomic types    =            1
     number of electrons       =       256.00
     number of Kohn-Sham states=          154
     kinetic-energy cutoff     =      50.0000  Ry
     charge density cutoff     =     200.0000  Ry
     convergence threshold     =      1.0E-08
     mixing beta               =       0.7000
     number of iterations used =            8  plain     mixing
     Exchange-correlation      = PBE ( 1  4  3  4 0 0)

     celldm(1)=  20.659106  celldm(2)=   0.000000  celldm(3)=   0.000000
     celldm(4)=   0.000000  celldm(5)=   0.000000  celldm(6)=   0.000000

     crystal axes: (cart. coord. in units of alat)
               a(1) = (   1.000000   0.000000   0.000000 )
               a(2) = (   0.000000   1.000000   0.000000 )
               a(3) = (   0.000000   0.000000   1.000000 )

     reciprocal axes: (cart. coord. in units 2 pi/alat)
               b(1) = (  1.000000  0.000000  0.000000 )
               b(2) = (  0.000000  1.000000  0.000000 )
               b(3) = (  0.000000  0.000000  1.000000 )

     PseudoPot. # 1 for Si read from file:
     ~/kedar/softwares/SSSP_precision_pseudos/Si.pbe-n-rrkjus_psl.1.0.0.UPF
     MD5 check sum: Not computed, couldn't open file
     Pseudo is Ultrasoft + core correction, Zval =  4.0
     Generated using "atomic" code by A. Dal Corso v.5.1
     Using radial grid of 1141 points,  6 beta functions with:
                l(1) =   0
                l(2) =   0
                l(3) =   1
                l(4) =   1
                l(5) =   2
                l(6) =   2
     Q(r) pseudized with 0 coefficients

     atomic species   valence    mass     pseudopotential
        Si             4.00    28.08550     Si( 1.00)

      2 Sym. Ops. (no inversion) found ( 1 have fractional translation)

   Cartesian axes

     site n.     atom                  positions (alat units)
         1           Si  tau(   1) = (   0.4404043   0.4375000   0.4375000  )
         2           Si  tau(   2) = (   0.9375000   0.4375000   0.4375000  )
         3           Si  tau(   3) = (   0.4375000   0.9375000   0.4375000  )
         4           Si  tau(   4) = (   0.9375000   0.9375000   0.4375000  )
         5           Si  tau(   5) = (   0.4375000   0.4375000   0.9375000  )
         6           Si  tau(   6) = (   0.9375000   0.4375000   0.9375000  )
         7           Si  tau(   7) = (   0.4375000   0.9375000   0.9375000  )
         8           Si  tau(   8) = (   0.9375000   0.9375000   0.9375000  )
         9           Si  tau(   9) = (   0.4375000   0.1875000   0.1875000  )
        10           Si  tau(  10) = (   0.9375000   0.1875000   0.1875000  )
        11           Si  tau(  11) = (   0.4375000   0.6875000   0.1875000  )
        12           Si  tau(  12) = (   0.9345957   0.6875000   0.1875000  )
        13           Si  tau(  13) = (   0.4375000   0.1875000   0.6875000  )
        14           Si  tau(  14) = (   0.9375000   0.1875000   0.6875000  )
        15           Si  tau(  15) = (   0.4375000   0.6875000   0.6875000  )
        16           Si  tau(  16) = (   0.9375000   0.6875000   0.6875000  )
        17           Si  tau(  17) = (   0.1875000   0.4375000   0.1875000  )
        18           Si  tau(  18) = (   0.6875000   0.4375000   0.1875000  )
        19           Si  tau(  19) = (   0.1875000   0.9375000   0.1875000  )
        20           Si  tau(  20) = (   0.6875000   0.9375000   0.1875000  )
        21           Si  tau(  21) = (   0.1875000   0.4375000   0.6875000  )
        22           Si  tau(  22) = (   0.6875000   0.4375000   0.6875000  )
        23           Si  tau(  23) = (   0.1875000   0.9375000   0.6875000  )
        24           Si  tau(  24) = (   0.6875000   0.9375000   0.6875000  )
        25           Si  tau(  25) = (   0.1875000   0.1875000   0.4375000  )
        26           Si  tau(  26) = (   0.6875000   0.1875000   0.4375000  )
        27           Si  tau(  27) = (   0.1875000   0.6875000   0.4375000  )
        28           Si  tau(  28) = (   0.6875000   0.6875000   0.4375000  )
        29           Si  tau(  29) = (   0.1875000   0.1875000   0.9375000  )
        30           Si  tau(  30) = (   0.6875000   0.1875000   0.9375000  )
        31           Si  tau(  31) = (   0.1875000   0.6875000   0.9375000  )
        32           Si  tau(  32) = (   0.6875000   0.6875000   0.9375000  )
        33           Si  tau(  33) = (   0.0625000   0.0625000   0.0625000  )
        34           Si  tau(  34) = (   0.5625000   0.0625000   0.0625000  )
        35           Si  tau(  35) = (   0.0625000   0.5625000   0.0625000  )
        36           Si  tau(  36) = (   0.5625000   0.5625000   0.0625000  )
        37           Si  tau(  37) = (   0.0625000   0.0625000   0.5625000  )
        38           Si  tau(  38) = (   0.5625000   0.0625000   0.5625000  )
        39           Si  tau(  39) = (   0.0625000   0.5625000   0.5625000  )
        40           Si  tau(  40) = (   0.5625000   0.5625000   0.5625000  )
        41           Si  tau(  41) = (   0.0625000   0.3125000   0.3125000  )
        42           Si  tau(  42) = (   0.5625000   0.3125000   0.3125000  )
        43           Si  tau(  43) = (   0.0625000   0.8125000   0.3125000  )
        44           Si  tau(  44) = (   0.5625000   0.8125000   0.3125000  )
        45           Si  tau(  45) = (   0.0625000   0.3125000   0.8125000  )
        46           Si  tau(  46) = (   0.5625000   0.3125000   0.8125000  )
        47           Si  tau(  47) = (   0.0625000   0.8125000   0.8125000  )
        48           Si  tau(  48) = (   0.5625000   0.8125000   0.8125000  )
        49           Si  tau(  49) = (   0.3125000   0.0625000   0.3125000  )
        50           Si  tau(  50) = (   0.8125000   0.0625000   0.3125000  )
        51           Si  tau(  51) = (   0.3125000   0.5625000   0.3125000  )
        52           Si  tau(  52) = (   0.8125000   0.5625000   0.3125000  )
        53           Si  tau(  53) = (   0.3125000   0.0625000   0.8125000  )
        54           Si  tau(  54) = (   0.8125000   0.0625000   0.8125000  )
        55           Si  tau(  55) = (   0.3125000   0.5625000   0.8125000  )
        56           Si  tau(  56) = (   0.8125000   0.5625000   0.8125000  )
        57           Si  tau(  57) = (   0.3125000   0.3125000   0.0625000  )
        58           Si  tau(  58) = (   0.8125000   0.3125000   0.0625000  )
        59           Si  tau(  59) = (   0.3125000   0.8125000   0.0625000  )
        60           Si  tau(  60) = (   0.8125000   0.8125000   0.0625000  )
        61           Si  tau(  61) = (   0.3125000   0.3125000   0.5625000  )
        62           Si  tau(  62) = (   0.8125000   0.3125000   0.5625000  )
        63           Si  tau(  63) = (   0.3125000   0.8125000   0.5625000  )
        64           Si  tau(  64) = (   0.8125000   0.8125000   0.5625000  )

     number of k points=     3  gaussian smearing, width (Ry)=  0.0100
                       cart. coord. in units 2pi/alat
        k(    1) = (   0.2500000   0.2500000   0.2500000), wk =   1.0000000
        k(    2) = (  -0.2500000   0.2500000  -0.2500000), wk =   0.5000000
        k(    3) = (   0.2500000   0.2500000  -0.2500000), wk =   0.5000000

     Check: negative/imaginary core charge=   -0.000001    0.000000

     Initial potential from superposition of free atoms

     starting charge  255.96421, renormalised to  256.00000
     Starting wfcs are  256 randomized atomic wfcs

     Self-consistent Calculation

     iteration #  1     ecut=    50.00 Ry     beta= 0.70
     Davidson diagonalization with overlap
     ethr =  1.00E-02,  avg # of iterations =  3.0

     Threshold (ethr) on eigenvalues was too large:
     Diagonalizing with lowered threshold

     Davidson diagonalization with overlap
     ethr =  6.78E-04,  avg # of iterations =  2.0

     total energy              =    -730.80315993 Ry
     Harris-Foulkes estimate   =    -731.20928916 Ry
     estimated scf accuracy    <       1.72058141 Ry

[...]

     total energy              =    -730.88002556 Ry
     Harris-Foulkes estimate   =    -730.88002564 Ry
     estimated scf accuracy    <       0.00000019 Ry

     iteration # 11     ecut=    50.00 Ry     beta= 0.70
     Davidson diagonalization with overlap
     ethr =  7.31E-11,  avg # of iterations =  3.0

     End of self-consistent calculation

          k = 0.2500 0.2500 0.2500 ( 52563 PWs)   bands (ev):

    -5.6275  -5.1030  -5.0993  -5.0956  -4.6038  -4.6003  -4.5965  -4.1669
    -4.0710  -4.0674  -4.0638  -3.6590  -3.6538  -3.6520  -3.6507  -3.6489
    -3.6442  -3.4616  -3.4593  -3.4568  -2.9674  -2.9634  -2.9595  -2.5993
    -2.5944  -2.5894  -2.4333  -2.4283  -2.4265  -2.4255  -2.4236  -2.4184
    -0.8934  -0.8875  -0.8848  -0.8834  -0.8809  -0.8752  -0.7924  -0.7863
    -0.7807  -0.6708  -0.6682  -0.6650  -0.5896  -0.5821  -0.5743   0.1202
     0.1954   0.2000   0.2036   0.2055   0.2095   0.2137   1.0719   1.0792
     1.0862   1.4098   1.4120   1.4141   2.0183   2.0200   2.0222   2.0229
     2.0246   2.0263   2.0793   2.0817   2.0841   2.6302   2.6334   2.6363
     2.7320   2.7330   2.7351   2.7378   2.7393   2.7399   2.7873   2.7905
     2.7940   3.0947   3.0979   3.1000   3.1013   3.1034   3.1065   3.3628
     3.3651   3.3665   3.3775   3.3792   3.3811   3.7232   3.7277   3.7318
     3.7466   3.7496   3.7538   3.8295   3.8324   3.8356   4.1005   4.1043
     4.1068   4.1077   4.1097   4.1141   4.1432   4.1465   4.1502   4.4070
     4.4610   4.4642   4.4667   4.7040   4.7072   4.7106   4.7659   4.7720
     4.7789   4.9289   4.9294   5.2325   5.2366   5.2412   5.7171   5.7173
     6.9295   6.9304   6.9310   7.3649   7.3706   7.3761   7.5967   7.8518
     7.8564   7.8607   7.9827   7.9861   7.9891   8.1410   8.1450   8.1485
     8.1623   8.1650   8.1679   8.3898   8.3919   8.3955   8.3983   8.4016
     8.4037   8.4440

          k =-0.2500 0.2500-0.2500 ( 52563 PWs)   bands (ev):

[...]

          k = 0.2500 0.2500-0.2500 ( 52563 PWs)   bands (ev):

    -5.6275  -5.1027  -5.0992  -5.0961  -4.6034  -4.6001  -4.5971  -4.1672
    -4.0708  -4.0672  -4.0639  -3.6618  -3.6538  -3.6508  -3.6501  -3.6493
    -3.6425  -3.4617  -3.4593  -3.4569  -2.9675  -2.9633  -2.9595  -2.5993
    -2.5944  -2.5894  -2.4336  -2.4289  -2.4257  -2.4256  -2.4236  -2.4184
    -0.8898  -0.8878  -0.8848  -0.8835  -0.8810  -0.8786  -0.7921  -0.7861
    -0.7805  -0.6708  -0.6682  -0.6652  -0.5866  -0.5822  -0.5771   0.1202
     0.1965   0.2000   0.2048   0.2051   0.2085   0.2128   1.0770   1.0791
     1.0814   1.4103   1.4118   1.4137   2.0195   2.0202   2.0207   2.0229
     2.0246   2.0269   2.0794   2.0814   2.0842   2.6302   2.6334   2.6363
     2.7296   2.7316   2.7368   2.7375   2.7410   2.7421   2.7878   2.7898
     2.7926   3.0949   3.0998   3.1007   3.1015   3.1026   3.1043   3.3627
     3.3651   3.3666   3.3773   3.3798   3.3808   3.7254   3.7280   3.7297
     3.7461   3.7497   3.7540   3.8306   3.8325   3.8342   4.1004   4.1056
     4.1076   4.1083   4.1095   4.1116   4.1444   4.1474   4.1484   4.4064
     4.4609   4.4646   4.4667   4.7051   4.7075   4.7096   4.7686   4.7719
     4.7759   4.9293   4.9294   5.2334   5.2368   5.2397   5.7171   5.7173
     6.9294   6.9303   6.9310   7.3678   7.3705   7.3733   7.5967   7.8541
     7.8564   7.8585   7.9828   7.9862   7.9891   8.1417   8.1449   8.1471
     8.1629   8.1648   8.1679   8.3908   8.3938   8.3973   8.3984   8.3999
     8.4009   8.4441

     the Fermi energy is     6.3201 ev

!    total energy              =    -730.88002558 Ry
     Harris-Foulkes estimate   =    -730.88002559 Ry
     estimated scf accuracy    <          9.4E-09 Ry

     The total energy is the sum of the following terms:

     one-electron contribution =     160.47264459 Ry
     hartree contribution      =      35.78729138 Ry
     xc contribution           =    -393.13387897 Ry
     ewald contribution        =    -534.00608258 Ry
     smearing contrib. (-TS)   =      -0.00000000 Ry

     convergence has been achieved in  11 iterations

     Forces acting on atoms (cartesian axes, Ry/au):

     atom    1 type  1   force =    -0.01605797    0.00001015   -0.00001015
     atom    2 type  1   force =     0.00055508    0.00011457   -0.00011457
     atom    3 type  1   force =     0.00005375    0.00000886    0.00000897
     atom    4 type  1   force =     0.00052050    0.00011006    0.00011051
     atom    5 type  1   force =     0.00005375   -0.00000897   -0.00000886
     atom    6 type  1   force =     0.00052050   -0.00011051   -0.00011006
     atom    7 type  1   force =    -0.00047660   -0.00000934    0.00000934
     atom    8 type  1   force =     0.00055461   -0.00011403    0.00011403
     atom    9 type  1   force =    -0.00052402    0.00011516    0.00011485
     atom   10 type  1   force =    -0.00005515    0.00000906    0.00000858
     atom   11 type  1   force =    -0.00055048    0.00010989   -0.00010989
     atom   12 type  1   force =     0.01605703    0.00000893   -0.00000893
     atom   13 type  1   force =    -0.00055029   -0.00011019    0.00011019
     atom   14 type  1   force =     0.00047796   -0.00000917    0.00000917
     atom   15 type  1   force =    -0.00052402   -0.00011485   -0.00011516
     atom   16 type  1   force =    -0.00005515   -0.00000858   -0.00000906
     atom   17 type  1   force =    -0.00000026    0.00011468    0.00033495
     atom   18 type  1   force =    -0.00000054   -0.00034554   -0.00011489
     atom   19 type  1   force =    -0.00018733   -0.00023402   -0.00018608
     atom   20 type  1   force =    -0.00019325    0.00022098   -0.00003984
     atom   21 type  1   force =     0.00018662    0.00003411   -0.00021604
     atom   22 type  1   force =     0.00019416    0.00019036    0.00023923
     atom   23 type  1   force =    -0.00000086    0.00008503    0.00006734
     atom   24 type  1   force =     0.00000079   -0.00006640   -0.00008439
     atom   25 type  1   force =     0.00018662    0.00021604   -0.00003411
     atom   26 type  1   force =     0.00019416   -0.00023923   -0.00019036
     atom   27 type  1   force =    -0.00000026   -0.00033495   -0.00011468
     atom   28 type  1   force =    -0.00000054    0.00011489    0.00034554
     atom   29 type  1   force =    -0.00000086   -0.00006734   -0.00008503
     atom   30 type  1   force =     0.00000079    0.00008439    0.00006640
     atom   31 type  1   force =    -0.00018733    0.00018608    0.00023402
     atom   32 type  1   force =    -0.00019325    0.00003984   -0.00022098
     atom   33 type  1   force =     0.00003621    0.00006850    0.00008148
     atom   34 type  1   force =     0.00023049    0.00005357    0.00005695
     atom   35 type  1   force =    -0.00381207    0.00253681    0.00253519
     atom   36 type  1   force =    -0.00004936    0.00008535    0.00007447
     atom   37 type  1   force =    -0.00022923    0.00005192    0.00005382
     atom   38 type  1   force =    -0.00003800    0.00006853    0.00007995
     atom   39 type  1   force =     0.00004687    0.00008704    0.00007319
     atom   40 type  1   force =     0.00393006    0.00276659    0.00276217
     atom   41 type  1   force =     0.00004687   -0.00007319   -0.00008704
     atom   42 type  1   force =     0.00393006   -0.00276217   -0.00276659
     atom   43 type  1   force =    -0.00381207   -0.00253519   -0.00253681
     atom   44 type  1   force =    -0.00004936   -0.00007447   -0.00008535
     atom   45 type  1   force =    -0.00022923   -0.00005382   -0.00005192
     atom   46 type  1   force =    -0.00003800   -0.00007995   -0.00006853
     atom   47 type  1   force =     0.00003621   -0.00008148   -0.00006850
     atom   48 type  1   force =     0.00023049   -0.00005695   -0.00005357
     atom   49 type  1   force =    -0.00008401   -0.00006113    0.00007687
     atom   50 type  1   force =     0.00008782   -0.00006353    0.00007775
     atom   51 type  1   force =     0.00384977   -0.00254824    0.00254824
     atom   52 type  1   force =    -0.00396757   -0.00277369    0.00277369
     atom   53 type  1   force =     0.00027528   -0.00005925    0.00005925
     atom   54 type  1   force =    -0.00027879   -0.00005937    0.00005937
     atom   55 type  1   force =    -0.00008401   -0.00007687    0.00006113
     atom   56 type  1   force =     0.00008782   -0.00007775    0.00006353
     atom   57 type  1   force =    -0.00008374    0.00007533   -0.00006235
     atom   58 type  1   force =     0.00008820    0.00006616   -0.00007502
     atom   59 type  1   force =     0.00026531    0.00006475   -0.00006475
     atom   60 type  1   force =    -0.00397901    0.00276793   -0.00276793
     atom   61 type  1   force =     0.00385845    0.00254238   -0.00254238
     atom   62 type  1   force =    -0.00026804    0.00006485   -0.00006485
     atom   63 type  1   force =    -0.00008374    0.00006235   -0.00007533
     atom   64 type  1   force =     0.00008820    0.00007502   -0.00006616

     Total force =     0.027478     Total SCF correction =     0.000137

     Writing output data file pwscf.save/

     General routines

     Parallel routines

   This run was terminated on:   9:34: 0  14Feb2020

   JOB DONE.