     Program PWSCF v.6.3MaX starts on 13Feb2020 at 22:42: 7

     Waiting for input...
     Reading input from standard input

     Current dimensions of program PWSCF are:
     Max number of different atomic species (ntypx) = 10
     Max number of k-points (npk) =  40000
     Max angular momentum in pseudopotentials (lmaxx) =  3

     Subspace diagonalization in iterative solution of the eigenvalue problem:
     a serial algorithm will be used

     bravais-lattice index     =            0
     lattice parameter (alat)  =      20.6591  a.u.
     unit-cell volume          =    8817.2783 (a.u.)^3
     number of atoms/cell      =           64
     number of atomic types    =            1
     number of electrons       =       256.00
     number of Kohn-Sham states=          154
     kinetic-energy cutoff     =      50.0000  Ry
     charge density cutoff     =     200.0000  Ry
     convergence threshold     =      1.0E-08
     mixing beta               =       0.7000
     number of iterations used =            8  plain     mixing
     Exchange-correlation      = PBE ( 1  4  3  4 0 0)

     celldm(1)=  20.659106  celldm(2)=   0.000000  celldm(3)=   0.000000
     celldm(4)=   0.000000  celldm(5)=   0.000000  celldm(6)=   0.000000

     crystal axes: (cart. coord. in units of alat)
               a(1) = (   1.000000   0.000000   0.000000 )
               a(2) = (   0.000000   1.000000   0.000000 )
               a(3) = (   0.000000   0.000000   1.000000 )

     reciprocal axes: (cart. coord. in units 2 pi/alat)
               b(1) = (  1.000000  0.000000  0.000000 )
               b(2) = (  0.000000  1.000000  0.000000 )
               b(3) = (  0.000000  0.000000  1.000000 )

     PseudoPot. # 1 for Si read from file:
     ~/kedar/softwares/SSSP_precision_pseudos/Si.pbe-n-rrkjus_psl.1.0.0.UPF
     MD5 check sum: Not computed, couldn't open file
     Pseudo is Ultrasoft + core correction, Zval =  4.0
     Generated using "atomic" code by A. Dal Corso v.5.1
     Using radial grid of 1141 points,  6 beta functions with:
                l(1) =   0
                l(2) =   0
                l(3) =   1
                l(4) =   1
                l(5) =   2
                l(6) =   2
     Q(r) pseudized with 0 coefficients

     atomic species   valence    mass     pseudopotential
        Si             4.00    28.08550     Si( 1.00)

      2 Sym. Ops. (no inversion) found

   Cartesian axes

     site n.     atom                  positions (alat units)
         1           Si  tau(   1) = (   0.4404043   0.4375000   0.4375000  )
         2           Si  tau(   2) = (   0.9375000   0.4375000   0.4375000  )
         3           Si  tau(   3) = (   0.4375000   0.9375000   0.4375000  )
         4           Si  tau(   4) = (   0.9375000   0.9375000   0.4375000  )
         5           Si  tau(   5) = (   0.4375000   0.4375000   0.9375000  )
         6           Si  tau(   6) = (   0.9375000   0.4375000   0.9375000  )
         7           Si  tau(   7) = (   0.4375000   0.9375000   0.9375000  )
         8           Si  tau(   8) = (   0.9375000   0.9375000   0.9375000  )
         9           Si  tau(   9) = (   0.4375000   0.1875000   0.1875000  )
        10           Si  tau(  10) = (   0.9404043   0.1875000   0.1875000  )
        11           Si  tau(  11) = (   0.4375000   0.6875000   0.1875000  )
        12           Si  tau(  12) = (   0.9375000   0.6875000   0.1875000  )
        13           Si  tau(  13) = (   0.4375000   0.1875000   0.6875000  )
        14           Si  tau(  14) = (   0.9375000   0.1875000   0.6875000  )
        15           Si  tau(  15) = (   0.4375000   0.6875000   0.6875000  )
        16           Si  tau(  16) = (   0.9375000   0.6875000   0.6875000  )
        17           Si  tau(  17) = (   0.1875000   0.4375000   0.1875000  )
        18           Si  tau(  18) = (   0.6875000   0.4375000   0.1875000  )
        19           Si  tau(  19) = (   0.1875000   0.9375000   0.1875000  )
        20           Si  tau(  20) = (   0.6875000   0.9375000   0.1875000  )
        21           Si  tau(  21) = (   0.1875000   0.4375000   0.6875000  )
        22           Si  tau(  22) = (   0.6875000   0.4375000   0.6875000  )
        23           Si  tau(  23) = (   0.1875000   0.9375000   0.6875000  )
        24           Si  tau(  24) = (   0.6875000   0.9375000   0.6875000  )
        25           Si  tau(  25) = (   0.1875000   0.1875000   0.4375000  )
        26           Si  tau(  26) = (   0.6875000   0.1875000   0.4375000  )
        27           Si  tau(  27) = (   0.1875000   0.6875000   0.4375000  )
        28           Si  tau(  28) = (   0.6875000   0.6875000   0.4375000  )
        29           Si  tau(  29) = (   0.1875000   0.1875000   0.9375000  )
        30           Si  tau(  30) = (   0.6875000   0.1875000   0.9375000  )
        31           Si  tau(  31) = (   0.1875000   0.6875000   0.9375000  )
        32           Si  tau(  32) = (   0.6875000   0.6875000   0.9375000  )
        33           Si  tau(  33) = (   0.0625000   0.0625000   0.0625000  )
        34           Si  tau(  34) = (   0.5625000   0.0625000   0.0625000  )
        35           Si  tau(  35) = (   0.0625000   0.5625000   0.0625000  )
        36           Si  tau(  36) = (   0.5625000   0.5625000   0.0625000  )
        37           Si  tau(  37) = (   0.0625000   0.0625000   0.5625000  )
        38           Si  tau(  38) = (   0.5625000   0.0625000   0.5625000  )
        39           Si  tau(  39) = (   0.0625000   0.5625000   0.5625000  )
        40           Si  tau(  40) = (   0.5625000   0.5625000   0.5625000  )
        41           Si  tau(  41) = (   0.0625000   0.3125000   0.3125000  )
        42           Si  tau(  42) = (   0.5625000   0.3125000   0.3125000  )
        43           Si  tau(  43) = (   0.0625000   0.8125000   0.3125000  )
        44           Si  tau(  44) = (   0.5625000   0.8125000   0.3125000  )
        45           Si  tau(  45) = (   0.0625000   0.3125000   0.8125000  )
        46           Si  tau(  46) = (   0.5625000   0.3125000   0.8125000  )
        47           Si  tau(  47) = (   0.0625000   0.8125000   0.8125000  )
        48           Si  tau(  48) = (   0.5625000   0.8125000   0.8125000  )
        49           Si  tau(  49) = (   0.3125000   0.0625000   0.3125000  )
        50           Si  tau(  50) = (   0.8125000   0.0625000   0.3125000  )
        51           Si  tau(  51) = (   0.3125000   0.5625000   0.3125000  )
        52           Si  tau(  52) = (   0.8125000   0.5625000   0.3125000  )
        53           Si  tau(  53) = (   0.3125000   0.0625000   0.8125000  )
        54           Si  tau(  54) = (   0.8125000   0.0625000   0.8125000  )
        55           Si  tau(  55) = (   0.3125000   0.5625000   0.8125000  )
        56           Si  tau(  56) = (   0.8125000   0.5625000   0.8125000  )
        57           Si  tau(  57) = (   0.3125000   0.3125000   0.0625000  )
        58           Si  tau(  58) = (   0.8125000   0.3125000   0.0625000  )
        59           Si  tau(  59) = (   0.3125000   0.8125000   0.0625000  )
        60           Si  tau(  60) = (   0.8125000   0.8125000   0.0625000  )
        61           Si  tau(  61) = (   0.3125000   0.3125000   0.5625000  )
        62           Si  tau(  62) = (   0.8125000   0.3125000   0.5625000  )
        63           Si  tau(  63) = (   0.3125000   0.8125000   0.5625000  )
        64           Si  tau(  64) = (   0.8125000   0.8125000   0.5625000  )

     number of k points=     3  gaussian smearing, width (Ry)=  0.0100
                       cart. coord. in units 2pi/alat
        k(    1) = (   0.2500000   0.2500000   0.2500000), wk =   0.5000000
        k(    2) = (  -0.2500000   0.2500000  -0.2500000), wk =   1.0000000
        k(    3) = (   0.2500000  -0.2500000  -0.2500000), wk =   0.5000000

     Check: negative/imaginary core charge=   -0.000001    0.000000

     Initial potential from superposition of free atoms

     starting charge  255.96421, renormalised to  256.00000
     Starting wfcs are  256 randomized atomic wfcs

     Self-consistent Calculation

     iteration #  1     ecut=    50.00 Ry     beta= 0.70
     Davidson diagonalization with overlap
     ethr =  1.00E-02,  avg # of iterations =  3.0

     Threshold (ethr) on eigenvalues was too large:
     Diagonalizing with lowered threshold

     Davidson diagonalization with overlap
     ethr =  6.78E-04,  avg # of iterations =  2.0

     total energy              =    -730.80252922 Ry
     Harris-Foulkes estimate   =    -731.20838011 Ry
     estimated scf accuracy    <       1.71978635 Ry

[...]

     total energy              =    -730.88002552 Ry
     Harris-Foulkes estimate   =    -730.88002553 Ry
     estimated scf accuracy    <       0.00000002 Ry

     iteration # 12     ecut=    50.00 Ry     beta= 0.70
     Davidson diagonalization with overlap
     ethr =  6.74E-12,  avg # of iterations =  3.0

     End of self-consistent calculation

          k = 0.2500 0.2500 0.2500 ( 52563 PWs)   bands (ev):

    -5.6274  -5.1037  -5.0976  -5.0970  -4.6046  -4.5984  -4.5977  -4.1659
    -4.0712  -4.0656  -4.0642  -3.6611  -3.6532  -3.6507  -3.6495  -3.6494
    -3.6475  -3.4663  -3.4574  -3.4565  -2.9657  -2.9614  -2.9576  -2.5992
    -2.5936  -2.5914  -2.4375  -2.4267  -2.4254  -2.4239  -2.4230  -2.4213
    -0.8971  -0.8849  -0.8835  -0.8814  -0.8782  -0.8773  -0.7873  -0.7867
    -0.7827  -0.6725  -0.6663  -0.6598  -0.5947  -0.5844  -0.5800   0.1164
     0.1956   0.2041   0.2047   0.2072   0.2113   0.2138   1.0683   1.0790
     1.0825   1.4064   1.4139   1.4157   2.0165   2.0209   2.0231   2.0232
     2.0243   2.0271   2.0792   2.0840   2.0853   2.6296   2.6312   2.6332
     2.7334   2.7344   2.7373   2.7385   2.7396   2.7422   2.7871   2.7934
     2.7978   3.0913   3.0999   3.1009   3.1018   3.1027   3.1059   3.3631
     3.3665   3.3680   3.3752   3.3830   3.3837   3.7201   3.7276   3.7293
     3.7424   3.7473   3.7505   3.8301   3.8334   3.8373   4.0924   4.1029
     4.1054   4.1075   4.1084   4.1099   4.1441   4.1475   4.1523   4.4029
     4.4635   4.4662   4.4688   4.7048   4.7086   4.7141   4.7608   4.7697
     4.7719   4.9255   4.9354   5.2344   5.2382   5.2456   5.7138   5.7253
     6.9266   6.9343   6.9350   7.3653   7.3715   7.3771   7.5982   7.8523
     7.8585   7.8630   7.9816   7.9821   7.9900   8.1421   8.1444   8.1496
     8.1617   8.1671   8.1685   8.3858   8.3909   8.3960   8.3973   8.3980
     8.4013   8.4468

          k =-0.2500 0.2500-0.2500 ( 52563 PWs)   bands (ev):

[...]

          k = 0.2500-0.2500-0.2500 ( 52563 PWs)   bands (ev):

    -5.6274  -5.1038  -5.0976  -5.0970  -4.6046  -4.5984  -4.5977  -4.1659
    -4.0712  -4.0656  -4.0642  -3.6611  -3.6532  -3.6507  -3.6495  -3.6494
    -3.6475  -3.4663  -3.4574  -3.4565  -2.9657  -2.9614  -2.9576  -2.5992
    -2.5936  -2.5914  -2.4375  -2.4267  -2.4254  -2.4239  -2.4230  -2.4213
    -0.8971  -0.8848  -0.8835  -0.8814  -0.8782  -0.8773  -0.7873  -0.7867
    -0.7827  -0.6725  -0.6663  -0.6598  -0.5947  -0.5844  -0.5800   0.1164
     0.1956   0.2041   0.2047   0.2072   0.2113   0.2138   1.0683   1.0790
     1.0825   1.4064   1.4139   1.4157   2.0165   2.0209   2.0231   2.0232
     2.0243   2.0271   2.0792   2.0840   2.0853   2.6296   2.6312   2.6332
     2.7334   2.7344   2.7373   2.7385   2.7396   2.7422   2.7871   2.7934
     2.7978   3.0913   3.0999   3.1009   3.1018   3.1027   3.1059   3.3631
     3.3665   3.3680   3.3752   3.3830   3.3837   3.7201   3.7276   3.7293
     3.7424   3.7473   3.7505   3.8301   3.8334   3.8373   4.0924   4.1029
     4.1054   4.1075   4.1084   4.1099   4.1441   4.1475   4.1523   4.4029
     4.4635   4.4662   4.4688   4.7048   4.7086   4.7141   4.7608   4.7697
     4.7719   4.9255   4.9354   5.2344   5.2382   5.2456   5.7138   5.7253
     6.9266   6.9343   6.9350   7.3653   7.3715   7.3771   7.5982   7.8523
     7.8585   7.8630   7.9816   7.9821   7.9900   8.1421   8.1444   8.1496
     8.1617   8.1671   8.1685   8.3858   8.3909   8.3960   8.3973   8.3980
     8.4013   8.4468

     the Fermi energy is     6.3206 ev

!    total energy              =    -730.88002552 Ry
     Harris-Foulkes estimate   =    -730.88002553 Ry
     estimated scf accuracy    <          4.2E-09 Ry

     The total energy is the sum of the following terms:

     one-electron contribution =     160.47313229 Ry
     hartree contribution      =      35.78722391 Ry
     xc contribution           =    -393.13399833 Ry
     ewald contribution        =    -534.00638340 Ry
     smearing contrib. (-TS)   =      -0.00000000 Ry

     convergence has been achieved in  12 iterations

     Forces acting on atoms (cartesian axes, Ry/au):

     atom    1 type  1   force =    -0.01605415   -0.00000818   -0.00000818
     atom    2 type  1   force =    -0.00050585   -0.00011468   -0.00011468
     atom    3 type  1   force =     0.00005802   -0.00001038    0.00000926
     atom    4 type  1   force =    -0.00053266   -0.00011069    0.00010984
     atom    5 type  1   force =     0.00005802    0.00000926   -0.00001038
     atom    6 type  1   force =    -0.00053266    0.00010984   -0.00011069
     atom    7 type  1   force =    -0.00047355    0.00000899    0.00000899
     atom    8 type  1   force =    -0.00050530    0.00011507    0.00011507
     atom    9 type  1   force =    -0.00050434    0.00011358    0.00011358
     atom   10 type  1   force =    -0.01605469    0.00000881    0.00000881
     atom   11 type  1   force =    -0.00053225    0.00011094   -0.00011011
     atom   12 type  1   force =     0.00005746    0.00000960   -0.00000903
     atom   13 type  1   force =    -0.00053225   -0.00011011    0.00011094
     atom   14 type  1   force =     0.00005746   -0.00000903    0.00000960
     atom   15 type  1   force =    -0.00050354   -0.00011443   -0.00011443
     atom   16 type  1   force =    -0.00047500   -0.00000928   -0.00000928
     atom   17 type  1   force =     0.00046745    0.00012033    0.00033778
     atom   18 type  1   force =     0.00046779   -0.00033867   -0.00011981
     atom   19 type  1   force =     0.00028198   -0.00023973   -0.00019034
     atom   20 type  1   force =     0.00027450    0.00021531   -0.00003504
     atom   21 type  1   force =     0.00027546    0.00003337   -0.00021474
     atom   22 type  1   force =     0.00028127    0.00019084    0.00024055
     atom   23 type  1   force =     0.00008898    0.00008635    0.00006699
     atom   24 type  1   force =     0.00008729   -0.00006655   -0.00008601
     atom   25 type  1   force =     0.00046745    0.00033778    0.00012033
     atom   26 type  1   force =     0.00046779   -0.00011981   -0.00033867
     atom   27 type  1   force =     0.00027546   -0.00021474    0.00003337
     atom   28 type  1   force =     0.00028127    0.00024055    0.00019084
     atom   29 type  1   force =     0.00028198   -0.00019034   -0.00023973
     atom   30 type  1   force =     0.00027450   -0.00003504    0.00021531
     atom   31 type  1   force =     0.00008898    0.00006699    0.00008635
     atom   32 type  1   force =     0.00008729   -0.00008601   -0.00006655
     atom   33 type  1   force =     0.00393759   -0.00270526   -0.00270526
     atom   34 type  1   force =     0.00024917   -0.00000869   -0.00000869
     atom   35 type  1   force =    -0.00003118   -0.00001095   -0.00002391
     atom   36 type  1   force =    -0.00003127    0.00002450    0.00001035
     atom   37 type  1   force =    -0.00003118   -0.00002391   -0.00001095
     atom   38 type  1   force =    -0.00003127    0.00001035    0.00002450
     atom   39 type  1   force =     0.00024824    0.00000858    0.00000858
     atom   40 type  1   force =     0.00393756    0.00270602    0.00270602
     atom   41 type  1   force =     0.00394742    0.00269910    0.00269910
     atom   42 type  1   force =     0.00394946   -0.00269984   -0.00269984
     atom   43 type  1   force =    -0.00003189    0.00001283    0.00002213
     atom   44 type  1   force =    -0.00003237   -0.00001241   -0.00002204
     atom   45 type  1   force =    -0.00003189    0.00002213    0.00001283
     atom   46 type  1   force =    -0.00003237   -0.00002204   -0.00001241
     atom   47 type  1   force =     0.00023845   -0.00000242   -0.00000242
     atom   48 type  1   force =     0.00023773    0.00000264    0.00000264
     atom   49 type  1   force =    -0.00006644   -0.00000144    0.00001381
     atom   50 type  1   force =     0.00386781    0.00248359   -0.00248188
     atom   51 type  1   force =     0.00386847   -0.00248220    0.00248141
     atom   52 type  1   force =    -0.00006688    0.00000015   -0.00001431
     atom   53 type  1   force =     0.00028419    0.00000206    0.00000020
     atom   54 type  1   force =    -0.00007759    0.00002044   -0.00000518
     atom   55 type  1   force =    -0.00007563   -0.00002067    0.00000659
     atom   56 type  1   force =     0.00028290   -0.00000250   -0.00000064
     atom   57 type  1   force =    -0.00006644    0.00001381   -0.00000144
     atom   58 type  1   force =     0.00386781   -0.00248188    0.00248359
     atom   59 type  1   force =     0.00028419    0.00000020    0.00000206
     atom   60 type  1   force =    -0.00007759   -0.00000518    0.00002044
     atom   61 type  1   force =     0.00386847    0.00248141   -0.00248220
     atom   62 type  1   force =    -0.00006688   -0.00001431    0.00000015
     atom   63 type  1   force =    -0.00007563    0.00000659   -0.00002067
     atom   64 type  1   force =     0.00028290   -0.00000064   -0.00000250

     Total force =     0.027411     Total SCF correction =     0.000119

     Writing output data file pwscf.save/

     General routines

     Parallel routines

       1h

   This run was terminated on:  23:43:20  13Feb2020

   JOB DONE.