     Program PWSCF v.6.3MaX starts on 14Feb2020 at 13:57:32

     R & G space division:  proc/nbgrp/npool/nimage =       2
     Waiting for input...
     Reading input from standard input

     Current dimensions of program PWSCF are:
     Max number of different atomic species (ntypx) = 10
     Max number of k-points (npk) =  40000
     Max angular momentum in pseudopotentials (lmaxx) =  3

     Subspace diagonalization in iterative solution of the eigenvalue problem:
     a serial algorithm will be used

     bravais-lattice index     =            0
     lattice parameter (alat)  =      20.6591  a.u.
     unit-cell volume          =    8817.2783 (a.u.)^3
     number of atoms/cell      =           64
     number of atomic types    =            1
     number of electrons       =       256.00
     number of Kohn-Sham states=          154
     kinetic-energy cutoff     =      50.0000  Ry
     charge density cutoff     =     200.0000  Ry
     convergence threshold     =      1.0E-08
     mixing beta               =       0.7000
     number of iterations used =            8  plain     mixing
     Exchange-correlation      = PBE ( 1  4  3  4 0 0)

     celldm(1)=  20.659106  celldm(2)=   0.000000  celldm(3)=   0.000000
     celldm(4)=   0.000000  celldm(5)=   0.000000  celldm(6)=   0.000000

     crystal axes: (cart. coord. in units of alat)
               a(1) = (   1.000000   0.000000   0.000000 )
               a(2) = (   0.000000   1.000000   0.000000 )
               a(3) = (   0.000000   0.000000   1.000000 )

     reciprocal axes: (cart. coord. in units 2 pi/alat)
               b(1) = (  1.000000  0.000000  0.000000 )
               b(2) = (  0.000000  1.000000  0.000000 )
               b(3) = (  0.000000  0.000000  1.000000 )

     PseudoPot. # 1 for Si read from file:
     ~/kedar/softwares/SSSP_precision_pseudos/Si.pbe-n-rrkjus_psl.1.0.0.UPF
     MD5 check sum: Not computed, couldn't open file
     Pseudo is Ultrasoft + core correction, Zval =  4.0
     Generated using "atomic" code by A. Dal Corso v.5.1
     Using radial grid of 1141 points,  6 beta functions with:
                l(1) =   0
                l(2) =   0
                l(3) =   1
                l(4) =   1
                l(5) =   2
                l(6) =   2
     Q(r) pseudized with 0 coefficients

     atomic species   valence    mass     pseudopotential
        Si             4.00    28.08550     Si( 1.00)

      2 Sym. Ops. (no inversion) found ( 1 have fractional translation)

   Cartesian axes

     site n.     atom                  positions (alat units)
         1           Si  tau(   1) = (   0.4404043   0.4375000   0.4375000  )
         2           Si  tau(   2) = (   0.9375000   0.4375000   0.4375000  )
         3           Si  tau(   3) = (   0.4375000   0.9375000   0.4375000  )
         4           Si  tau(   4) = (   0.9375000   0.9375000   0.4375000  )
         5           Si  tau(   5) = (   0.4375000   0.4375000   0.9375000  )
         6           Si  tau(   6) = (   0.9375000   0.4375000   0.9375000  )
         7           Si  tau(   7) = (   0.4375000   0.9375000   0.9375000  )
         8           Si  tau(   8) = (   0.9375000   0.9375000   0.9375000  )
         9           Si  tau(   9) = (   0.4375000   0.1875000   0.1875000  )
        10           Si  tau(  10) = (   0.9375000   0.1875000   0.1875000  )
        11           Si  tau(  11) = (   0.4375000   0.6875000   0.1875000  )
        12           Si  tau(  12) = (   0.9375000   0.6875000   0.1875000  )
        13           Si  tau(  13) = (   0.4375000   0.1875000   0.6875000  )
        14           Si  tau(  14) = (   0.9375000   0.1875000   0.6875000  )
        15           Si  tau(  15) = (   0.4375000   0.6875000   0.6875000  )
        16           Si  tau(  16) = (   0.9375000   0.6875000   0.6875000  )
        17           Si  tau(  17) = (   0.1875000   0.4375000   0.1875000  )
        18           Si  tau(  18) = (   0.6875000   0.4375000   0.1875000  )
        19           Si  tau(  19) = (   0.1875000   0.9375000   0.1875000  )
        20           Si  tau(  20) = (   0.6875000   0.9375000   0.1875000  )
        21           Si  tau(  21) = (   0.1875000   0.4375000   0.6875000  )
        22           Si  tau(  22) = (   0.6875000   0.4375000   0.6875000  )
        23           Si  tau(  23) = (   0.1875000   0.9375000   0.6875000  )
        24           Si  tau(  24) = (   0.6875000   0.9375000   0.6875000  )
        25           Si  tau(  25) = (   0.1875000   0.1875000   0.4375000  )
        26           Si  tau(  26) = (   0.6875000   0.1875000   0.4375000  )
        27           Si  tau(  27) = (   0.1875000   0.6875000   0.4375000  )
        28           Si  tau(  28) = (   0.6875000   0.6875000   0.4375000  )
        29           Si  tau(  29) = (   0.1875000   0.1875000   0.9375000  )
        30           Si  tau(  30) = (   0.6875000   0.1875000   0.9375000  )
        31           Si  tau(  31) = (   0.1875000   0.6875000   0.9375000  )
        32           Si  tau(  32) = (   0.6875000   0.6875000   0.9375000  )
        33           Si  tau(  33) = (   0.0625000   0.0595957   0.0625000  )
        34           Si  tau(  34) = (   0.5625000   0.0625000   0.0625000  )
        35           Si  tau(  35) = (   0.0625000   0.5625000   0.0625000  )
        36           Si  tau(  36) = (   0.5625000   0.5625000   0.0625000  )
        37           Si  tau(  37) = (   0.0625000   0.0625000   0.5625000  )
        38           Si  tau(  38) = (   0.5625000   0.0625000   0.5625000  )
        39           Si  tau(  39) = (   0.0625000   0.5625000   0.5625000  )
        40           Si  tau(  40) = (   0.5625000   0.5625000   0.5625000  )
        41           Si  tau(  41) = (   0.0625000   0.3125000   0.3125000  )
        42           Si  tau(  42) = (   0.5625000   0.3125000   0.3125000  )
        43           Si  tau(  43) = (   0.0625000   0.8125000   0.3125000  )
        44           Si  tau(  44) = (   0.5625000   0.8125000   0.3125000  )
        45           Si  tau(  45) = (   0.0625000   0.3125000   0.8125000  )
        46           Si  tau(  46) = (   0.5625000   0.3125000   0.8125000  )
        47           Si  tau(  47) = (   0.0625000   0.8125000   0.8125000  )
        48           Si  tau(  48) = (   0.5625000   0.8125000   0.8125000  )
        49           Si  tau(  49) = (   0.3125000   0.0625000   0.3125000  )
        50           Si  tau(  50) = (   0.8125000   0.0625000   0.3125000  )
        51           Si  tau(  51) = (   0.3125000   0.5625000   0.3125000  )
        52           Si  tau(  52) = (   0.8125000   0.5625000   0.3125000  )
        53           Si  tau(  53) = (   0.3125000   0.0625000   0.8125000  )
        54           Si  tau(  54) = (   0.8125000   0.0625000   0.8125000  )
        55           Si  tau(  55) = (   0.3125000   0.5625000   0.8125000  )
        56           Si  tau(  56) = (   0.8125000   0.5625000   0.8125000  )
        57           Si  tau(  57) = (   0.3125000   0.3125000   0.0625000  )
        58           Si  tau(  58) = (   0.8125000   0.3125000   0.0625000  )
        59           Si  tau(  59) = (   0.3125000   0.8125000   0.0625000  )
        60           Si  tau(  60) = (   0.8125000   0.8125000   0.0625000  )
        61           Si  tau(  61) = (   0.3125000   0.3125000   0.5625000  )
        62           Si  tau(  62) = (   0.8125000   0.3125000   0.5625000  )
        63           Si  tau(  63) = (   0.3125000   0.8125000   0.5625000  )
        64           Si  tau(  64) = (   0.8125000   0.8125000   0.5625000  )

     number of k points=     3  gaussian smearing, width (Ry)=  0.0100
                       cart. coord. in units 2pi/alat
        k(    1) = (   0.2500000   0.2500000   0.2500000), wk =   0.5000000
        k(    2) = (  -0.2500000   0.2500000  -0.2500000), wk =   1.0000000
        k(    3) = (   0.2500000   0.2500000  -0.2500000), wk =   0.5000000

     Check: negative/imaginary core charge=   -0.000001    0.000000

     Initial potential from superposition of free atoms

     starting charge  255.96421, renormalised to  256.00000
     Starting wfcs are  256 randomized atomic wfcs

     Self-consistent Calculation

     iteration #  1     ecut=    50.00 Ry     beta= 0.70
     Davidson diagonalization with overlap
     ethr =  1.00E-02,  avg # of iterations =  3.0

     Threshold (ethr) on eigenvalues was too large:
     Diagonalizing with lowered threshold

     Davidson diagonalization with overlap
     ethr =  6.78E-04,  avg # of iterations =  2.0

     total energy              =    -730.80288848 Ry
     Harris-Foulkes estimate   =    -731.20908453 Ry
     estimated scf accuracy    <       1.72070056 Ry

[...]

     total energy              =    -730.88002370 Ry
     Harris-Foulkes estimate   =    -730.88002371 Ry
     estimated scf accuracy    <       0.00000002 Ry

     iteration # 12     ecut=    50.00 Ry     beta= 0.70
     Davidson diagonalization with overlap
     ethr =  6.80E-12,  avg # of iterations =  3.0

     End of self-consistent calculation

          k = 0.2500 0.2500 0.2500 ( 52563 PWs)   bands (ev):

    -5.6274  -5.1041  -5.0982  -5.0960  -4.6047  -4.5990  -4.5969  -4.1661
    -4.0716  -4.0661  -4.0632  -3.6647  -3.6522  -3.6504  -3.6500  -3.6485
    -3.6454  -3.4649  -3.4587  -3.4566  -2.9660  -2.9620  -2.9567  -2.6005
    -2.5928  -2.5909  -2.4376  -2.4270  -2.4250  -2.4245  -2.4230  -2.4209
    -0.8919  -0.8867  -0.8830  -0.8816  -0.8813  -0.8778  -0.7916  -0.7836
    -0.7814  -0.6701  -0.6672  -0.6615  -0.5966  -0.5819  -0.5806   0.1164
     0.1973   0.2032   0.2053   0.2072   0.2088   0.2148   1.0691   1.0792
     1.0816   1.4083   1.4125   1.4151   2.0184   2.0196   2.0222   2.0227
     2.0253   2.0269   2.0800   2.0827   2.0858   2.6279   2.6326   2.6334
     2.7327   2.7334   2.7365   2.7376   2.7423   2.7432   2.7891   2.7936
     2.7952   3.0934   3.0998   3.0999   3.1012   3.1024   3.1059   3.3652
     3.3655   3.3673   3.3772   3.3805   3.3838   3.7213   3.7275   3.7290
     3.7407   3.7489   3.7498   3.8319   3.8327   3.8362   4.0922   4.1038
     4.1043   4.1081   4.1085   4.1095   4.1464   4.1467   4.1509   4.4027
     4.4643   4.4657   4.4689   4.7077   4.7079   4.7125   4.7591   4.7709
     4.7717   4.9280   4.9329   5.2369   5.2376   5.2437   5.7167   5.7225
     6.9288   6.9329   6.9342   7.3680   7.3708   7.3751   7.5982   7.8550
     7.8575   7.8614   7.9814   7.9830   7.9894   8.1428   8.1433   8.1489
     8.1640   8.1650   8.1687   8.3873   8.3895   8.3970   8.3973   8.3979
     8.4015   8.4462

          k =-0.2500 0.2500-0.2500 ( 52563 PWs)   bands (ev):

[...]

          k = 0.2500 0.2500-0.2500 ( 52563 PWs)   bands (ev):

    -5.6275  -5.1028  -5.0988  -5.0960  -4.6037  -4.5997  -4.5973  -4.1682
    -4.0715  -4.0672  -4.0643  -3.6575  -3.6545  -3.6518  -3.6512  -3.6474
    -3.6433  -3.4622  -3.4599  -3.4538  -2.9704  -2.9642  -2.9614  -2.5975
    -2.5960  -2.5884  -2.4314  -2.4301  -2.4263  -2.4259  -2.4235  -2.4170
    -0.8925  -0.8896  -0.8845  -0.8840  -0.8828  -0.8746  -0.7916  -0.7890
    -0.7815  -0.6741  -0.6690  -0.6662  -0.5825  -0.5813  -0.5692   0.1240
     0.1940   0.1973   0.2044   0.2048   0.2058   0.2121   1.0767   1.0795
     1.0884   1.4087   1.4114   1.4156   2.0163   2.0203   2.0219   2.0226
     2.0250   2.0272   2.0777   2.0800   2.0844   2.6329   2.6346   2.6381
     2.7272   2.7318   2.7352   2.7370   2.7382   2.7404   2.7846   2.7865
     2.7930   3.0943   3.0991   3.1006   3.1012   3.1035   3.1058   3.3607
     3.3642   3.3654   3.3752   3.3780   3.3812   3.7271   3.7304   3.7311
     3.7499   3.7529   3.7568   3.8281   3.8322   3.8336   4.1057   4.1063
     4.1073   4.1083   4.1137   4.1180   4.1416   4.1464   4.1482   4.4110
     4.4575   4.4629   4.4643   4.7016   4.7068   4.7075   4.7725   4.7741
     4.7845   4.9255   4.9305   5.2286   5.2359   5.2370   5.7119   5.7176
     6.9252   6.9284   6.9321   7.3633   7.3718   7.3741   7.5952   7.8493
     7.8559   7.8588   7.9826   7.9890   7.9907   8.1378   8.1465   8.1476
     8.1606   8.1656   8.1673   8.3934   8.3954   8.3969   8.4000   8.4016
     8.4043   8.4417

     the Fermi energy is     6.3200 ev

!    total energy              =    -730.88002370 Ry
     Harris-Foulkes estimate   =    -730.88002371 Ry
     estimated scf accuracy    <          2.3E-09 Ry

     The total energy is the sum of the following terms:

     one-electron contribution =     160.47279878 Ry
     hartree contribution      =      35.78738701 Ry
     xc contribution           =    -393.13399517 Ry
     ewald contribution        =    -534.00621434 Ry
     smearing contrib. (-TS)   =      -0.00000000 Ry

     convergence has been achieved in  12 iterations

     Forces acting on atoms (cartesian axes, Ry/au):

     atom    1 type  1   force =    -0.01608589    0.00001925   -0.00003002
     atom    2 type  1   force =    -0.00000332   -0.00002746   -0.00002361
     atom    3 type  1   force =     0.00002744   -0.00025829   -0.00002867
     atom    4 type  1   force =    -0.00005547    0.00005972   -0.00003709
     atom    5 type  1   force =     0.00003063   -0.00002616   -0.00002695
     atom    6 type  1   force =    -0.00004315    0.00001003   -0.00003877
     atom    7 type  1   force =    -0.00051430    0.00005806   -0.00004914
     atom    8 type  1   force =    -0.00271059   -0.00395850   -0.00273630
     atom    9 type  1   force =    -0.00049388    0.00017107    0.00006429
     atom   10 type  1   force =     0.00251145   -0.00383098   -0.00250128
     atom   11 type  1   force =    -0.00049958    0.00008198   -0.00013968
     atom   12 type  1   force =     0.00004015    0.00001980   -0.00004702
     atom   13 type  1   force =    -0.00049720   -0.00036520    0.00008227
     atom   14 type  1   force =     0.00005231    0.00004774   -0.00002699
     atom   15 type  1   force =    -0.00049984   -0.00009455   -0.00014438
     atom   16 type  1   force =     0.00003066   -0.00003836   -0.00003489
     atom   17 type  1   force =     0.00026883   -0.00010036    0.00026090
     atom   18 type  1   force =     0.00026229   -0.00014209   -0.00020266
     atom   19 type  1   force =     0.00278057   -0.00396779    0.00265954
     atom   20 type  1   force =     0.00008115    0.00005036    0.00012495
     atom   21 type  1   force =     0.00025699    0.00008401   -0.00019924
     atom   22 type  1   force =     0.00026898    0.00013407    0.00026036
     atom   23 type  1   force =     0.00009301    0.00006748    0.00011494
     atom   24 type  1   force =     0.00007274   -0.00024884   -0.00004785
     atom   25 type  1   force =     0.00018040    0.00028158   -0.00007389
     atom   26 type  1   force =     0.00020973   -0.00048511   -0.00008613
     atom   27 type  1   force =     0.00020219   -0.00025254    0.00013743
     atom   28 type  1   force =     0.00020632    0.00024917    0.00014607
     atom   29 type  1   force =    -0.00246711   -0.00391616    0.00250134
     atom   30 type  1   force =     0.00000808    0.00013307    0.00004074
     atom   31 type  1   force =     0.00000702    0.00008663    0.00004566
     atom   32 type  1   force =     0.00001696   -0.00010407    0.00003727
     atom   33 type  1   force =    -0.00001925    0.01608589    0.00003002
     atom   34 type  1   force =     0.00025829   -0.00002744    0.00002867
     atom   35 type  1   force =     0.00002746    0.00000332    0.00002361
     atom   36 type  1   force =    -0.00005972    0.00005547    0.00003709
     atom   37 type  1   force =     0.00002616   -0.00003063    0.00002695
     atom   38 type  1   force =    -0.00005806    0.00051430    0.00004914
     atom   39 type  1   force =    -0.00001003    0.00004315    0.00003877
     atom   40 type  1   force =     0.00395850    0.00271059    0.00273630
     atom   41 type  1   force =     0.00010036   -0.00026883   -0.00026090
     atom   42 type  1   force =     0.00396779   -0.00278057   -0.00265954
     atom   43 type  1   force =     0.00014209   -0.00026229    0.00020266
     atom   44 type  1   force =    -0.00005036   -0.00008115   -0.00012495
     atom   45 type  1   force =    -0.00008401   -0.00025699    0.00019924
     atom   46 type  1   force =    -0.00006748   -0.00009301   -0.00011494
     atom   47 type  1   force =    -0.00013407   -0.00026898   -0.00026036
     atom   48 type  1   force =     0.00024884   -0.00007274    0.00004785
     atom   49 type  1   force =    -0.00017107    0.00049388   -0.00006429
     atom   50 type  1   force =    -0.00008198    0.00049958    0.00013968
     atom   51 type  1   force =     0.00383098   -0.00251145    0.00250128
     atom   52 type  1   force =    -0.00001980   -0.00004015    0.00004702
     atom   53 type  1   force =     0.00036520    0.00049720   -0.00008227
     atom   54 type  1   force =     0.00009455    0.00049984    0.00014438
     atom   55 type  1   force =    -0.00004774   -0.00005231    0.00002699
     atom   56 type  1   force =     0.00003836   -0.00003066    0.00003489
     atom   57 type  1   force =    -0.00028158   -0.00018040    0.00007389
     atom   58 type  1   force =     0.00025254   -0.00020219   -0.00013743
     atom   59 type  1   force =     0.00048511   -0.00020973    0.00008613
     atom   60 type  1   force =    -0.00024917   -0.00020632   -0.00014607
     atom   61 type  1   force =     0.00391616    0.00246711   -0.00250134
     atom   62 type  1   force =    -0.00008663   -0.00000702   -0.00004566
     atom   63 type  1   force =    -0.00013307   -0.00000808   -0.00004074
     atom   64 type  1   force =     0.00010407   -0.00001696   -0.00003727

     Total force =     0.027484     Total SCF correction =     0.000087

     Writing output data file pwscf.save/

     General routines

     Parallel routines

   This run was terminated on:  14:19:59  14Feb2020

   JOB DONE.