     Program PWSCF v.6.3MaX starts on 14Feb2020 at 13:50: 4

     R & G space division:  proc/nbgrp/npool/nimage =       2
     Waiting for input...
     Reading input from standard input

     Current dimensions of program PWSCF are:
     Max number of different atomic species (ntypx) = 10
     Max number of k-points (npk) =  40000
     Max angular momentum in pseudopotentials (lmaxx) =  3

     Subspace diagonalization in iterative solution of the eigenvalue problem:
     a serial algorithm will be used

     bravais-lattice index     =            0
     lattice parameter (alat)  =      20.6591  a.u.
     unit-cell volume          =    8817.2783 (a.u.)^3
     number of atoms/cell      =           64
     number of atomic types    =            1
     number of electrons       =       256.00
     number of Kohn-Sham states=          154
     kinetic-energy cutoff     =      50.0000  Ry
     charge density cutoff     =     200.0000  Ry
     convergence threshold     =      1.0E-08
     mixing beta               =       0.7000
     number of iterations used =            8  plain     mixing
     Exchange-correlation      = PBE ( 1  4  3  4 0 0)

     celldm(1)=  20.659106  celldm(2)=   0.000000  celldm(3)=   0.000000
     celldm(4)=   0.000000  celldm(5)=   0.000000  celldm(6)=   0.000000

     crystal axes: (cart. coord. in units of alat)
               a(1) = (   1.000000   0.000000   0.000000 )
               a(2) = (   0.000000   1.000000   0.000000 )
               a(3) = (   0.000000   0.000000   1.000000 )

     reciprocal axes: (cart. coord. in units 2 pi/alat)
               b(1) = (  1.000000  0.000000  0.000000 )
               b(2) = (  0.000000  1.000000  0.000000 )
               b(3) = (  0.000000  0.000000  1.000000 )

     PseudoPot. # 1 for Si read from file:
     ~/kedar/softwares/SSSP_precision_pseudos/Si.pbe-n-rrkjus_psl.1.0.0.UPF
     MD5 check sum: Not computed, couldn't open file
     Pseudo is Ultrasoft + core correction, Zval =  4.0
     Generated using "atomic" code by A. Dal Corso v.5.1
     Using radial grid of 1141 points,  6 beta functions with:
                l(1) =   0
                l(2) =   0
                l(3) =   1
                l(4) =   1
                l(5) =   2
                l(6) =   2
     Q(r) pseudized with 0 coefficients

     atomic species   valence    mass     pseudopotential
        Si             4.00    28.08550     Si( 1.00)

     No symmetry found

   Cartesian axes

     site n.     atom                  positions (alat units)
         1           Si  tau(   1) = (   0.4404043   0.4375000   0.4375000  )
         2           Si  tau(   2) = (   0.9375000   0.4375000   0.4375000  )
         3           Si  tau(   3) = (   0.4375000   0.9375000   0.4375000  )
         4           Si  tau(   4) = (   0.9375000   0.9375000   0.4375000  )
         5           Si  tau(   5) = (   0.4375000   0.4375000   0.9375000  )
         6           Si  tau(   6) = (   0.9375000   0.4375000   0.9375000  )
         7           Si  tau(   7) = (   0.4375000   0.9375000   0.9375000  )
         8           Si  tau(   8) = (   0.9375000   0.9375000   0.9375000  )
         9           Si  tau(   9) = (   0.4375000   0.1875000   0.1875000  )
        10           Si  tau(  10) = (   0.9375000   0.1875000   0.1875000  )
        11           Si  tau(  11) = (   0.4375000   0.6875000   0.1875000  )
        12           Si  tau(  12) = (   0.9375000   0.6875000   0.1875000  )
        13           Si  tau(  13) = (   0.4375000   0.1875000   0.6875000  )
        14           Si  tau(  14) = (   0.9375000   0.1875000   0.6875000  )
        15           Si  tau(  15) = (   0.4375000   0.6875000   0.6875000  )
        16           Si  tau(  16) = (   0.9375000   0.6875000   0.6875000  )
        17           Si  tau(  17) = (   0.1875000   0.4375000   0.1875000  )
        18           Si  tau(  18) = (   0.6875000   0.4375000   0.1875000  )
        19           Si  tau(  19) = (   0.1875000   0.9375000   0.1875000  )
        20           Si  tau(  20) = (   0.6875000   0.9375000   0.1875000  )
        21           Si  tau(  21) = (   0.1875000   0.4375000   0.6875000  )
        22           Si  tau(  22) = (   0.6875000   0.4375000   0.6875000  )
        23           Si  tau(  23) = (   0.1875000   0.9375000   0.6875000  )
        24           Si  tau(  24) = (   0.6875000   0.9375000   0.6875000  )
        25           Si  tau(  25) = (   0.1875000   0.1875000   0.4375000  )
        26           Si  tau(  26) = (   0.6875000   0.1875000   0.4375000  )
        27           Si  tau(  27) = (   0.1875000   0.6875000   0.4375000  )
        28           Si  tau(  28) = (   0.6875000   0.6875000   0.4375000  )
        29           Si  tau(  29) = (   0.1875000   0.1875000   0.9375000  )
        30           Si  tau(  30) = (   0.6875000   0.1875000   0.9375000  )
        31           Si  tau(  31) = (   0.1875000   0.6875000   0.9375000  )
        32           Si  tau(  32) = (   0.6875000   0.6875000   0.9375000  )
        33           Si  tau(  33) = (   0.0625000   0.0654043   0.0625000  )
        34           Si  tau(  34) = (   0.5625000   0.0625000   0.0625000  )
        35           Si  tau(  35) = (   0.0625000   0.5625000   0.0625000  )
        36           Si  tau(  36) = (   0.5625000   0.5625000   0.0625000  )
        37           Si  tau(  37) = (   0.0625000   0.0625000   0.5625000  )
        38           Si  tau(  38) = (   0.5625000   0.0625000   0.5625000  )
        39           Si  tau(  39) = (   0.0625000   0.5625000   0.5625000  )
        40           Si  tau(  40) = (   0.5625000   0.5625000   0.5625000  )
        41           Si  tau(  41) = (   0.0625000   0.3125000   0.3125000  )
        42           Si  tau(  42) = (   0.5625000   0.3125000   0.3125000  )
        43           Si  tau(  43) = (   0.0625000   0.8125000   0.3125000  )
        44           Si  tau(  44) = (   0.5625000   0.8125000   0.3125000  )
        45           Si  tau(  45) = (   0.0625000   0.3125000   0.8125000  )
        46           Si  tau(  46) = (   0.5625000   0.3125000   0.8125000  )
        47           Si  tau(  47) = (   0.0625000   0.8125000   0.8125000  )
        48           Si  tau(  48) = (   0.5625000   0.8125000   0.8125000  )
        49           Si  tau(  49) = (   0.3125000   0.0625000   0.3125000  )
        50           Si  tau(  50) = (   0.8125000   0.0625000   0.3125000  )
        51           Si  tau(  51) = (   0.3125000   0.5625000   0.3125000  )
        52           Si  tau(  52) = (   0.8125000   0.5625000   0.3125000  )
        53           Si  tau(  53) = (   0.3125000   0.0625000   0.8125000  )
        54           Si  tau(  54) = (   0.8125000   0.0625000   0.8125000  )
        55           Si  tau(  55) = (   0.3125000   0.5625000   0.8125000  )
        56           Si  tau(  56) = (   0.8125000   0.5625000   0.8125000  )
        57           Si  tau(  57) = (   0.3125000   0.3125000   0.0625000  )
        58           Si  tau(  58) = (   0.8125000   0.3125000   0.0625000  )
        59           Si  tau(  59) = (   0.3125000   0.8125000   0.0625000  )
        60           Si  tau(  60) = (   0.8125000   0.8125000   0.0625000  )
        61           Si  tau(  61) = (   0.3125000   0.3125000   0.5625000  )
        62           Si  tau(  62) = (   0.8125000   0.3125000   0.5625000  )
        63           Si  tau(  63) = (   0.3125000   0.8125000   0.5625000  )
        64           Si  tau(  64) = (   0.8125000   0.8125000   0.5625000  )

     number of k points=     4  gaussian smearing, width (Ry)=  0.0100
                       cart. coord. in units 2pi/alat
        k(    1) = (   0.2500000   0.2500000   0.2500000), wk =   0.5000000
        k(    2) = (  -0.2500000  -0.2500000   0.2500000), wk =   0.5000000
        k(    3) = (  -0.2500000   0.2500000  -0.2500000), wk =   0.5000000
        k(    4) = (   0.2500000  -0.2500000  -0.2500000), wk =   0.5000000

     Check: negative/imaginary core charge=   -0.000001    0.000000

     Initial potential from superposition of free atoms

     starting charge  255.96421, renormalised to  256.00000
     Starting wfcs are  256 randomized atomic wfcs

     Self-consistent Calculation

     iteration #  1     ecut=    50.00 Ry     beta= 0.70
     Davidson diagonalization with overlap
     ethr =  1.00E-02,  avg # of iterations =  3.0

     Threshold (ethr) on eigenvalues was too large:
     Diagonalizing with lowered threshold

     Davidson diagonalization with overlap
     ethr =  6.78E-04,  avg # of iterations =  2.0

     total energy              =    -730.80258760 Ry
     Harris-Foulkes estimate   =    -731.20858545 Ry
     estimated scf accuracy    <       1.72019026 Ry

[...]

     total energy              =    -730.88002744 Ry
     Harris-Foulkes estimate   =    -730.88002744 Ry
     estimated scf accuracy    <       0.00000001 Ry

     iteration # 12     ecut=    50.00 Ry     beta= 0.70
     Davidson diagonalization with overlap
     ethr =  3.94E-12,  avg # of iterations =  3.0

     End of self-consistent calculation

          k = 0.2500 0.2500 0.2500 ( 52563 PWs)   bands (ev):

    -5.6275  -5.1020  -5.0993  -5.0968  -4.6030  -4.6002  -4.5976  -4.1670
    -4.0701  -4.0672  -4.0648  -3.6583  -3.6533  -3.6514  -3.6513  -3.6494
    -3.6449  -3.4635  -3.4594  -3.4550  -2.9666  -2.9634  -2.9604  -2.5982
    -2.5943  -2.5908  -2.4334  -2.4290  -2.4261  -2.4259  -2.4232  -2.4183
    -0.8945  -0.8876  -0.8842  -0.8840  -0.8807  -0.8749  -0.7899  -0.7863
    -0.7827  -0.6733  -0.6680  -0.6627  -0.5836  -0.5817  -0.5807   0.1202
     0.1952   0.2011   0.2044   0.2048   0.2080   0.2140   1.0754   1.0791
     1.0827   1.4080   1.4120   1.4159   2.0173   2.0205   2.0223   2.0228
     2.0243   2.0275   2.0791   2.0816   2.0842   2.6315   2.6333   2.6350
     2.7308   2.7328   2.7365   2.7366   2.7395   2.7420   2.7861   2.7902
     2.7942   3.0942   3.0993   3.1006   3.1006   3.1020   3.1070   3.3617
     3.3650   3.3671   3.3757   3.3792   3.3835   3.7243   3.7276   3.7303
     3.7474   3.7503   3.7527   3.8289   3.8324   3.8362   4.1019   4.1049
     4.1070   4.1073   4.1096   4.1122   4.1427   4.1463   4.1511   4.4066
     4.4607   4.4638   4.4673   4.7032   4.7073   4.7112   4.7708   4.7721
     4.7742   4.9249   4.9336   5.2314   5.2364   5.2420   5.7122   5.7221
     6.9264   6.9303   6.9340   7.3650   7.3706   7.3760   7.5967   7.8514
     7.8563   7.8611   7.9820   7.9860   7.9899   8.1417   8.1453   8.1476
     8.1614   8.1647   8.1690   8.3897   8.3952   8.3968   8.3970   8.3983
     8.4029   8.4447

          k =-0.2500-0.2500 0.2500 ( 52563 PWs)   bands (ev):

[...]

          k =-0.2500 0.2500-0.2500 ( 52563 PWs)   bands (ev):

[...]

          k = 0.2500-0.2500-0.2500 ( 52563 PWs)   bands (ev):

    -5.6274  -5.1039  -5.0977  -5.0967  -4.6046  -4.5985  -4.5975  -4.1660
    -4.0714  -4.0655  -4.0641  -3.6618  -3.6526  -3.6510  -3.6509  -3.6484
    -3.6466  -3.4642  -3.4593  -3.4566  -2.9659  -2.9610  -2.9579  -2.5987
    -2.5946  -2.5911  -2.4351  -2.4270  -2.4262  -2.4258  -2.4226  -2.4211
    -0.8907  -0.8866  -0.8841  -0.8836  -0.8798  -0.8780  -0.7885  -0.7857
    -0.7820  -0.6691  -0.6679  -0.6619  -0.5947  -0.5834  -0.5808   0.1164
     0.2001   0.2031   0.2048   0.2051   0.2094   0.2140   1.0703   1.0780
     1.0815   1.4091   1.4119   1.4150   2.0181   2.0200   2.0216   2.0236
     2.0251   2.0268   2.0805   2.0825   2.0854   2.6297   2.6309   2.6333
     2.7328   2.7340   2.7363   2.7380   2.7408   2.7438   2.7899   2.7923
     2.7956   3.0944   3.0973   3.1005   3.1017   3.1033   3.1055   3.3642
     3.3662   3.3673   3.3778   3.3805   3.3837   3.7209   3.7272   3.7289
     3.7432   3.7470   3.7500   3.8313   3.8334   3.8362   4.0955   4.1001
     4.1063   4.1075   4.1078   4.1093   4.1453   4.1478   4.1508   4.4026
     4.4641   4.4669   4.4679   4.7067   4.7090   4.7123   4.7608   4.7696
     4.7716   4.9279   4.9330   5.2358   5.2390   5.2434   5.7167   5.7224
     6.9286   6.9327   6.9346   7.3676   7.3724   7.3740   7.5982   7.8547
     7.8588   7.8603   7.9815   7.9838   7.9883   8.1430   8.1451   8.1478
     8.1629   8.1665   8.1680   8.3885   8.3896   8.3959   8.3968   8.3978
     8.4008   8.4469

     the Fermi energy is     6.3206 ev

!    total energy              =    -730.88002744 Ry
     Harris-Foulkes estimate   =    -730.88002744 Ry
     estimated scf accuracy    <          2.2E-09 Ry

     The total energy is the sum of the following terms:

     one-electron contribution =     160.47286816 Ry
     hartree contribution      =      35.78735568 Ry
     xc contribution           =    -393.13399924 Ry
     ewald contribution        =    -534.00625204 Ry
     smearing contrib. (-TS)   =      -0.00000000 Ry

     convergence has been achieved in  12 iterations

     Forces acting on atoms (cartesian axes, Ry/au):

     atom    1 type  1   force =    -0.01602335   -0.00001870    0.00002944
     atom    2 type  1   force =     0.00005349    0.00002949    0.00002730
     atom    3 type  1   force =     0.00008343    0.00025464    0.00002733
     atom    4 type  1   force =     0.00004347   -0.00005762    0.00003677
     atom    5 type  1   force =     0.00008172    0.00002840    0.00002939
     atom    6 type  1   force =     0.00003055   -0.00001058    0.00003691
     atom    7 type  1   force =    -0.00043808   -0.00005675    0.00005156
     atom    8 type  1   force =     0.00253531    0.00384042    0.00250957
     atom    9 type  1   force =    -0.00056818    0.00005517    0.00016385
     atom   10 type  1   force =    -0.00273455    0.00396766    0.00274364
     atom   11 type  1   force =    -0.00054950    0.00013687   -0.00008230
     atom   12 type  1   force =    -0.00003576   -0.00000079    0.00002791
     atom   13 type  1   force =    -0.00055423    0.00014903    0.00013813
     atom   14 type  1   force =    -0.00004624   -0.00006813    0.00004854
     atom   15 type  1   force =    -0.00056066   -0.00013413   -0.00008454
     atom   16 type  1   force =    -0.00002635    0.00001750    0.00001625
     atom   17 type  1   force =     0.00019381   -0.00012085    0.00018742
     atom   18 type  1   force =     0.00021011   -0.00008467   -0.00025885
     atom   19 type  1   force =    -0.00246573    0.00383039   -0.00258733
     atom   20 type  1   force =     0.00000729   -0.00006702    0.00002420
     atom   21 type  1   force =     0.00020141    0.00013837   -0.00025093
     atom   22 type  1   force =     0.00020776    0.00009499    0.00019860
     atom   23 type  1   force =    -0.00000739   -0.00004690    0.00004033
     atom   24 type  1   force =     0.00001655    0.00026376   -0.00010247
     atom   25 type  1   force =     0.00028023    0.00016612   -0.00014793
     atom   26 type  1   force =     0.00026505    0.00002889   -0.00014296
     atom   27 type  1   force =     0.00025834   -0.00019804    0.00008501
     atom   28 type  1   force =     0.00026830    0.00020941    0.00008306
     atom   29 type  1   force =     0.00277938    0.00388166   -0.00274590
     atom   30 type  1   force =     0.00008302    0.00001598   -0.00005844
     atom   31 type  1   force =     0.00008039    0.00006583   -0.00002807
     atom   32 type  1   force =     0.00006955   -0.00004801   -0.00001701
     atom   33 type  1   force =    -0.00002081   -0.01602315    0.00003057
     atom   34 type  1   force =     0.00025906    0.00008219    0.00002772
     atom   35 type  1   force =     0.00002620    0.00005029    0.00002447
     atom   36 type  1   force =    -0.00005801    0.00004323    0.00003870
     atom   37 type  1   force =     0.00002670    0.00008051    0.00002806
     atom   38 type  1   force =    -0.00005852   -0.00043860    0.00004882
     atom   39 type  1   force =    -0.00001067    0.00003020    0.00003702
     atom   40 type  1   force =     0.00395912    0.00276225    0.00273565
     atom   41 type  1   force =    -0.00012380    0.00020059    0.00019191
     atom   42 type  1   force =     0.00394894   -0.00269188   -0.00281189
     atom   43 type  1   force =    -0.00008386    0.00020586   -0.00025123
     atom   44 type  1   force =    -0.00006794    0.00000550    0.00002676
     atom   45 type  1   force =     0.00014061    0.00020983   -0.00025416
     atom   46 type  1   force =    -0.00004926   -0.00000533    0.00003825
     atom   47 type  1   force =     0.00008928    0.00020026    0.00019326
     atom   48 type  1   force =     0.00026936    0.00001661   -0.00010422
     atom   49 type  1   force =     0.00005363   -0.00056234    0.00015999
     atom   50 type  1   force =     0.00014286   -0.00055750   -0.00008605
     atom   51 type  1   force =     0.00384926   -0.00250793    0.00252028
     atom   52 type  1   force =    -0.00000150   -0.00003434    0.00002779
     atom   53 type  1   force =     0.00013950   -0.00055741    0.00014301
     atom   54 type  1   force =    -0.00012973   -0.00055654   -0.00007811
     atom   55 type  1   force =    -0.00006662   -0.00004970    0.00004575
     atom   56 type  1   force =     0.00001972   -0.00002639    0.00001698
     atom   57 type  1   force =     0.00017219    0.00028806   -0.00015098
     atom   58 type  1   force =    -0.00019989    0.00026594    0.00008678
     atom   59 type  1   force =     0.00003125    0.00025948   -0.00013712
     atom   60 type  1   force =     0.00020283    0.00026157    0.00007951
     atom   61 type  1   force =     0.00376286    0.00255418   -0.00251939
     atom   62 type  1   force =     0.00006583    0.00008188   -0.00002660
     atom   63 type  1   force =     0.00002027    0.00008007   -0.00006050
     atom   64 type  1   force =    -0.00004796    0.00007025   -0.00001953

     Total force =     0.027402     Total SCF correction =     0.000086

     Writing output data file pwscf.save/

     General routines

     Parallel routines

   This run was terminated on:  14:19:12  14Feb2020

   JOB DONE.