     Program PWSCF v.6.3MaX starts on 14Feb2020 at 22:17:11

     R & G space division:  proc/nbgrp/npool/nimage =       2
     Waiting for input...
     Reading input from standard input

     Current dimensions of program PWSCF are:
     Max number of different atomic species (ntypx) = 10
     Max number of k-points (npk) =  40000
     Max angular momentum in pseudopotentials (lmaxx) =  3

     Subspace diagonalization in iterative solution of the eigenvalue problem:
     a serial algorithm will be used

     bravais-lattice index     =            0
     lattice parameter (alat)  =      20.6591  a.u.
     unit-cell volume          =    8817.2783 (a.u.)^3
     number of atoms/cell      =           64
     number of atomic types    =            1
     number of electrons       =       256.00
     number of Kohn-Sham states=          154
     kinetic-energy cutoff     =      50.0000  Ry
     charge density cutoff     =     200.0000  Ry
     convergence threshold     =      1.0E-08
     mixing beta               =       0.7000
     number of iterations used =            8  plain     mixing
     Exchange-correlation      = PBE ( 1  4  3  4 0 0)

     celldm(1)=  20.659106  celldm(2)=   0.000000  celldm(3)=   0.000000
     celldm(4)=   0.000000  celldm(5)=   0.000000  celldm(6)=   0.000000

     crystal axes: (cart. coord. in units of alat)
               a(1) = (   1.000000   0.000000   0.000000 )
               a(2) = (   0.000000   1.000000   0.000000 )
               a(3) = (   0.000000   0.000000   1.000000 )

     reciprocal axes: (cart. coord. in units 2 pi/alat)
               b(1) = (  1.000000  0.000000  0.000000 )
               b(2) = (  0.000000  1.000000  0.000000 )
               b(3) = (  0.000000  0.000000  1.000000 )

     PseudoPot. # 1 for Si read from file:
     ~/kedar/softwares/SSSP_precision_pseudos/Si.pbe-n-rrkjus_psl.1.0.0.UPF
     MD5 check sum: Not computed, couldn't open file
     Pseudo is Ultrasoft + core correction, Zval =  4.0
     Generated using "atomic" code by A. Dal Corso v.5.1
     Using radial grid of 1141 points,  6 beta functions with:
                l(1) =   0
                l(2) =   0
                l(3) =   1
                l(4) =   1
                l(5) =   2
                l(6) =   2
     Q(r) pseudized with 0 coefficients

     atomic species   valence    mass     pseudopotential
        Si             4.00    28.08550     Si( 1.00)

      4 Sym. Ops., with inversion, found ( 3 have fractional translation)

   Cartesian axes

     site n.     atom                  positions (alat units)
         1           Si  tau(   1) = (   0.4404043   0.4375000   0.4375000  )
         2           Si  tau(   2) = (   0.9375000   0.4375000   0.4375000  )
         3           Si  tau(   3) = (   0.4375000   0.9375000   0.4375000  )
         4           Si  tau(   4) = (   0.9375000   0.9375000   0.4375000  )
         5           Si  tau(   5) = (   0.4375000   0.4375000   0.9375000  )
         6           Si  tau(   6) = (   0.9375000   0.4375000   0.9375000  )
         7           Si  tau(   7) = (   0.4375000   0.9375000   0.9375000  )
         8           Si  tau(   8) = (   0.9375000   0.9375000   0.9375000  )
         9           Si  tau(   9) = (   0.4375000   0.1875000   0.1875000  )
        10           Si  tau(  10) = (   0.9375000   0.1875000   0.1875000  )
        11           Si  tau(  11) = (   0.4375000   0.6875000   0.1875000  )
        12           Si  tau(  12) = (   0.9375000   0.6875000   0.1875000  )
        13           Si  tau(  13) = (   0.4375000   0.1875000   0.6875000  )
        14           Si  tau(  14) = (   0.9375000   0.1875000   0.6875000  )
        15           Si  tau(  15) = (   0.4375000   0.6875000   0.6875000  )
        16           Si  tau(  16) = (   0.9375000   0.6875000   0.6875000  )
        17           Si  tau(  17) = (   0.1875000   0.4375000   0.1875000  )
        18           Si  tau(  18) = (   0.6875000   0.4375000   0.1875000  )
        19           Si  tau(  19) = (   0.1875000   0.9375000   0.1875000  )
        20           Si  tau(  20) = (   0.6875000   0.9375000   0.1875000  )
        21           Si  tau(  21) = (   0.1875000   0.4375000   0.6875000  )
        22           Si  tau(  22) = (   0.6875000   0.4375000   0.6875000  )
        23           Si  tau(  23) = (   0.1875000   0.9375000   0.6875000  )
        24           Si  tau(  24) = (   0.6875000   0.9375000   0.6875000  )
        25           Si  tau(  25) = (   0.1875000   0.1875000   0.4375000  )
        26           Si  tau(  26) = (   0.6875000   0.1875000   0.4375000  )
        27           Si  tau(  27) = (   0.1875000   0.6875000   0.4375000  )
        28           Si  tau(  28) = (   0.6875000   0.6875000   0.4375000  )
        29           Si  tau(  29) = (   0.1875000   0.1875000   0.9375000  )
        30           Si  tau(  30) = (   0.6875000   0.1875000   0.9375000  )
        31           Si  tau(  31) = (   0.1875000   0.6875000   0.9375000  )
        32           Si  tau(  32) = (   0.6875000   0.6875000   0.9375000  )
        33           Si  tau(  33) = (   0.0625000   0.0625000   0.0625000  )
        34           Si  tau(  34) = (   0.5625000   0.0625000   0.0625000  )
        35           Si  tau(  35) = (   0.0625000   0.5625000   0.0625000  )
        36           Si  tau(  36) = (   0.5625000   0.5625000   0.0625000  )
        37           Si  tau(  37) = (   0.0625000   0.0625000   0.5625000  )
        38           Si  tau(  38) = (   0.5625000   0.0625000   0.5625000  )
        39           Si  tau(  39) = (   0.0625000   0.5625000   0.5625000  )
        40           Si  tau(  40) = (   0.5625000   0.5625000   0.5625000  )
        41           Si  tau(  41) = (   0.0625000   0.3125000   0.3125000  )
        42           Si  tau(  42) = (   0.5625000   0.3125000   0.3125000  )
        43           Si  tau(  43) = (   0.0625000   0.8125000   0.3125000  )
        44           Si  tau(  44) = (   0.5625000   0.8125000   0.3125000  )
        45           Si  tau(  45) = (   0.0625000   0.3125000   0.8125000  )
        46           Si  tau(  46) = (   0.5625000   0.3125000   0.8125000  )
        47           Si  tau(  47) = (   0.0625000   0.8125000   0.8125000  )
        48           Si  tau(  48) = (   0.5625000   0.8125000   0.8125000  )
        49           Si  tau(  49) = (   0.3125000   0.0625000   0.3125000  )
        50           Si  tau(  50) = (   0.8125000   0.0625000   0.3125000  )
        51           Si  tau(  51) = (   0.3125000   0.5625000   0.3125000  )
        52           Si  tau(  52) = (   0.8095957   0.5625000   0.3125000  )
        53           Si  tau(  53) = (   0.3125000   0.0625000   0.8125000  )
        54           Si  tau(  54) = (   0.8125000   0.0625000   0.8125000  )
        55           Si  tau(  55) = (   0.3125000   0.5625000   0.8125000  )
        56           Si  tau(  56) = (   0.8125000   0.5625000   0.8125000  )
        57           Si  tau(  57) = (   0.3125000   0.3125000   0.0625000  )
        58           Si  tau(  58) = (   0.8125000   0.3125000   0.0625000  )
        59           Si  tau(  59) = (   0.3125000   0.8125000   0.0625000  )
        60           Si  tau(  60) = (   0.8125000   0.8125000   0.0625000  )
        61           Si  tau(  61) = (   0.3125000   0.3125000   0.5625000  )
        62           Si  tau(  62) = (   0.8125000   0.3125000   0.5625000  )
        63           Si  tau(  63) = (   0.3125000   0.8125000   0.5625000  )
        64           Si  tau(  64) = (   0.8125000   0.8125000   0.5625000  )

     number of k points=     3  gaussian smearing, width (Ry)=  0.0100
                       cart. coord. in units 2pi/alat
        k(    1) = (   0.2500000   0.2500000   0.2500000), wk =   1.0000000
        k(    2) = (   0.2500000   0.2500000  -0.2500000), wk =   0.5000000
        k(    3) = (   0.2500000  -0.2500000   0.2500000), wk =   0.5000000

     Check: negative/imaginary core charge=   -0.000001    0.000000

     Initial potential from superposition of free atoms

     starting charge  255.96421, renormalised to  256.00000
     Starting wfcs are  256 randomized atomic wfcs

     Self-consistent Calculation

     iteration #  1     ecut=    50.00 Ry     beta= 0.70
     Davidson diagonalization with overlap
     ethr =  1.00E-02,  avg # of iterations =  3.0

     Threshold (ethr) on eigenvalues was too large:
     Diagonalizing with lowered threshold

     Davidson diagonalization with overlap
     ethr =  6.78E-04,  avg # of iterations =  2.0

     total energy              =    -730.80263446 Ry
     Harris-Foulkes estimate   =    -731.20859643 Ry
     estimated scf accuracy    <       1.72009789 Ry

[...]

     total energy              =    -730.88002631 Ry
     Harris-Foulkes estimate   =    -730.88002631 Ry
     estimated scf accuracy    <       0.00000002 Ry

     iteration # 12     ecut=    50.00 Ry     beta= 0.70
     Davidson diagonalization with overlap
     ethr =  8.16E-12,  avg # of iterations =  3.0

     End of self-consistent calculation

          k = 0.2500 0.2500 0.2500 ( 52563 PWs)   bands (ev):

    -5.6274  -5.1042  -5.0983  -5.0959  -4.6047  -4.5992  -4.5967  -4.1660
    -4.0715  -4.0661  -4.0634  -3.6618  -3.6559  -3.6500  -3.6498  -3.6475
    -3.6465  -3.4618  -3.4614  -3.4568  -2.9651  -2.9617  -2.9579  -2.5983
    -2.5954  -2.5908  -2.4360  -2.4298  -2.4252  -2.4246  -2.4218  -2.4205
    -0.8954  -0.8866  -0.8827  -0.8808  -0.8797  -0.8774  -0.7899  -0.7847
    -0.7815  -0.6730  -0.6632  -0.6629  -0.5925  -0.5859  -0.5807   0.1164
     0.1957   0.2029   0.2064   0.2088   0.2108   0.2121   1.0709   1.0779
     1.0811   1.4067   1.4138   1.4154   2.0175   2.0190   2.0224   2.0227
     2.0256   2.0284   2.0799   2.0838   2.0843   2.6283   2.6321   2.6334
     2.7320   2.7340   2.7359   2.7371   2.7432   2.7446   2.7869   2.7941
     2.7959   3.0926   3.0997   3.0999   3.1016   3.1035   3.1053   3.3647
     3.3648   3.3678   3.3751   3.3830   3.3843   3.7214   3.7281   3.7282
     3.7441   3.7461   3.7492   3.8305   3.8339   3.8364   4.0973   4.0999
     4.1046   4.1064   4.1085   4.1095   4.1447   4.1482   4.1512   4.4026
     4.4640   4.4651   4.4696   4.7055   4.7094   4.7128   4.7633   4.7675
     4.7715   4.9255   4.9358   5.2349   5.2392   5.2438   5.7138   5.7253
     6.9304   6.9305   6.9350   7.3666   7.3708   7.3765   7.5982   7.8534
     7.8574   7.8632   7.9807   7.9860   7.9870   8.1425   8.1438   8.1487
     8.1633   8.1645   8.1702   8.3867   8.3923   8.3945   8.3963   8.3988
     8.4010   8.4467

[...]

          k = 0.2500-0.2500 0.2500 ( 52563 PWs)   bands (ev):

    -5.6276  -5.1031  -5.1008  -5.0938  -4.6042  -4.6018  -4.5949  -4.1683
    -4.0716  -4.0689  -4.0624  -3.6552  -3.6541  -3.6538  -3.6513  -3.6507
    -3.6403  -3.4623  -3.4615  -3.4523  -2.9700  -2.9654  -2.9605  -2.5973
    -2.5949  -2.5899  -2.4307  -2.4291  -2.4289  -2.4262  -2.4257  -2.4136
    -0.8907  -0.8902  -0.8872  -0.8842  -0.8840  -0.8724  -0.7900  -0.7862
    -0.7850  -0.6756  -0.6702  -0.6636  -0.5844  -0.5763  -0.5725   0.1240
     0.1974   0.1979   0.2009   0.2034   0.2049   0.2138   1.0755   1.0797
     1.0893   1.4081   1.4103   1.4174   2.0166   2.0194   2.0220   2.0231
     2.0240   2.0291   2.0788   2.0794   2.0829   2.6336   2.6344   2.6378
     2.7289   2.7293   2.7357   2.7380   2.7388   2.7401   2.7834   2.7866
     2.7931   3.0938   3.0985   3.0996   3.1001   3.1028   3.1100   3.3603
     3.3646   3.3658   3.3750   3.3760   3.3831   3.7265   3.7279   3.7339
     3.7488   3.7518   3.7592   3.8280   3.8306   3.8352   4.1043   4.1058
     4.1070   4.1098   4.1124   4.1201   4.1414   4.1442   4.1502   4.4110
     4.4568   4.4632   4.4647   4.7019   4.7050   4.7087   4.7719   4.7759
     4.7837   4.9228   4.9331   5.2293   5.2331   5.2390   5.7091   5.7204
     6.9250   6.9265   6.9341   7.3645   7.3690   7.3759   7.5951   7.8493
     7.8541   7.8604   7.9818   7.9903   7.9904   8.1382   8.1464   8.1478
     8.1603   8.1649   8.1681   8.3911   8.3958   8.3962   8.3985   8.4023
     8.4078   8.4418

     the Fermi energy is     6.3205 ev

!    total energy              =    -730.88002631 Ry
     Harris-Foulkes estimate   =    -730.88002631 Ry
     estimated scf accuracy    <          5.4E-09 Ry

     The total energy is the sum of the following terms:

     one-electron contribution =     160.47207987 Ry
     hartree contribution      =      35.78774554 Ry
     xc contribution           =    -393.13400200 Ry
     ewald contribution        =    -534.00584972 Ry
     smearing contrib. (-TS)   =      -0.00000000 Ry

     convergence has been achieved in  12 iterations

     Forces acting on atoms (cartesian axes, Ry/au):

     atom    1 type  1   force =    -0.01604541    0.00003598   -0.00003598
     atom    2 type  1   force =    -0.00381358    0.00251022   -0.00251022
     atom    3 type  1   force =     0.00002614    0.00002701   -0.00003041
     atom    4 type  1   force =     0.00005060    0.00003678   -0.00005100
     atom    5 type  1   force =     0.00002614    0.00003041   -0.00002701
     atom    6 type  1   force =     0.00005060    0.00005100   -0.00003678
     atom    7 type  1   force =    -0.00045541    0.00002982   -0.00002982
     atom    8 type  1   force =    -0.00022908    0.00002688   -0.00002688
     atom    9 type  1   force =    -0.00055911    0.00008781    0.00014502
     atom   10 type  1   force =     0.00005926   -0.00002718    0.00006054
     atom   11 type  1   force =    -0.00051637    0.00007401   -0.00007401
     atom   12 type  1   force =    -0.00383663   -0.00250094    0.00250094
     atom   13 type  1   force =    -0.00050572   -0.00013991    0.00013991
     atom   14 type  1   force =    -0.00025290   -0.00003589    0.00003589
     atom   15 type  1   force =    -0.00055911   -0.00014502   -0.00008781
     atom   16 type  1   force =     0.00005926   -0.00006054    0.00002718
     atom   17 type  1   force =     0.00024076   -0.00014691    0.00018719
     atom   18 type  1   force =    -0.00372043   -0.00285046   -0.00296629
     atom   19 type  1   force =     0.00001708   -0.00003510   -0.00010241
     atom   20 type  1   force =     0.00010222   -0.00004830    0.00002721
     atom   21 type  1   force =     0.00020365    0.00008339   -0.00024922
     atom   22 type  1   force =     0.00029609    0.00006460    0.00019260
     atom   23 type  1   force =     0.00006411   -0.00002107    0.00004458
     atom   24 type  1   force =    -0.00021410   -0.00001776   -0.00010466
     atom   25 type  1   force =     0.00020365    0.00024922   -0.00008339
     atom   26 type  1   force =     0.00029609   -0.00019260   -0.00006460
     atom   27 type  1   force =     0.00024076   -0.00018719    0.00014691
     atom   28 type  1   force =    -0.00372043    0.00296629    0.00285046
     atom   29 type  1   force =     0.00006411   -0.00004458    0.00002107
     atom   30 type  1   force =    -0.00021410    0.00010466    0.00001776
     atom   31 type  1   force =     0.00001708    0.00010241    0.00003510
     atom   32 type  1   force =     0.00010222   -0.00002721    0.00004830
     atom   33 type  1   force =    -0.00006411    0.00002107   -0.00004458
     atom   34 type  1   force =     0.00021410    0.00001776    0.00010466
     atom   35 type  1   force =    -0.00020365   -0.00008339    0.00024922
     atom   36 type  1   force =    -0.00029609   -0.00006460   -0.00019260
     atom   37 type  1   force =    -0.00001708    0.00003510    0.00010241
     atom   38 type  1   force =    -0.00010222    0.00004830   -0.00002721
     atom   39 type  1   force =    -0.00024076    0.00014691   -0.00018719
     atom   40 type  1   force =     0.00372043    0.00285046    0.00296629
     atom   41 type  1   force =    -0.00024076    0.00018719   -0.00014691
     atom   42 type  1   force =     0.00372043   -0.00296629   -0.00285046
     atom   43 type  1   force =    -0.00020365   -0.00024922    0.00008339
     atom   44 type  1   force =    -0.00029609    0.00019260    0.00006460
     atom   45 type  1   force =    -0.00001708   -0.00010241   -0.00003510
     atom   46 type  1   force =    -0.00010222    0.00002721   -0.00004830
     atom   47 type  1   force =    -0.00006411    0.00004458   -0.00002107
     atom   48 type  1   force =     0.00021410   -0.00010466   -0.00001776
     atom   49 type  1   force =    -0.00005060   -0.00003678    0.00005100
     atom   50 type  1   force =    -0.00002614   -0.00002701    0.00003041
     atom   51 type  1   force =     0.00381358   -0.00251022    0.00251022
     atom   52 type  1   force =     0.01604541   -0.00003598    0.00003598
     atom   53 type  1   force =     0.00022908   -0.00002688    0.00002688
     atom   54 type  1   force =     0.00045541   -0.00002982    0.00002982
     atom   55 type  1   force =    -0.00005060   -0.00005100    0.00003678
     atom   56 type  1   force =    -0.00002614   -0.00003041    0.00002701
     atom   57 type  1   force =    -0.00005926    0.00006054   -0.00002718
     atom   58 type  1   force =     0.00055911    0.00014502    0.00008781
     atom   59 type  1   force =     0.00025290    0.00003589   -0.00003589
     atom   60 type  1   force =     0.00050572    0.00013991   -0.00013991
     atom   61 type  1   force =     0.00383663    0.00250094   -0.00250094
     atom   62 type  1   force =     0.00051637   -0.00007401    0.00007401
     atom   63 type  1   force =    -0.00005926    0.00002718   -0.00006054
     atom   64 type  1   force =     0.00055911   -0.00008781   -0.00014502

     Total force =     0.027418     Total SCF correction =     0.000140

     Writing output data file pwscf.save/

     General routines

     Parallel routines

   This run was terminated on:  22:48:59  14Feb2020

   JOB DONE.