     Program PWSCF v.6.3MaX starts on 14Feb2020 at 21: 5:15

     R & G space division:  proc/nbgrp/npool/nimage =       2
     Waiting for input...
     Reading input from standard input

     Current dimensions of program PWSCF are:
     Max number of different atomic species (ntypx) = 10
     Max number of k-points (npk) =  40000
     Max angular momentum in pseudopotentials (lmaxx) =  3

     Subspace diagonalization in iterative solution of the eigenvalue problem:
     a serial algorithm will be used

     bravais-lattice index     =            0
     lattice parameter (alat)  =      20.6591  a.u.
     unit-cell volume          =    8817.2783 (a.u.)^3
     number of atoms/cell      =           64
     number of atomic types    =            1
     number of electrons       =       256.00
     number of Kohn-Sham states=          154
     kinetic-energy cutoff     =      50.0000  Ry
     charge density cutoff     =     200.0000  Ry
     convergence threshold     =      1.0E-08
     mixing beta               =       0.7000
     number of iterations used =            8  plain     mixing
     Exchange-correlation      = PBE ( 1  4  3  4 0 0)

     celldm(1)=  20.659106  celldm(2)=   0.000000  celldm(3)=   0.000000
     celldm(4)=   0.000000  celldm(5)=   0.000000  celldm(6)=   0.000000

     crystal axes: (cart. coord. in units of alat)
               a(1) = (   1.000000   0.000000   0.000000 )
               a(2) = (   0.000000   1.000000   0.000000 )
               a(3) = (   0.000000   0.000000   1.000000 )

     reciprocal axes: (cart. coord. in units 2 pi/alat)
               b(1) = (  1.000000  0.000000  0.000000 )
               b(2) = (  0.000000  1.000000  0.000000 )
               b(3) = (  0.000000  0.000000  1.000000 )

     PseudoPot. # 1 for Si read from file:
     ~/kedar/softwares/SSSP_precision_pseudos/Si.pbe-n-rrkjus_psl.1.0.0.UPF
     MD5 check sum: Not computed, couldn't open file
     Pseudo is Ultrasoft + core correction, Zval =  4.0
     Generated using "atomic" code by A. Dal Corso v.5.1
     Using radial grid of 1141 points,  6 beta functions with:
                l(1) =   0
                l(2) =   0
                l(3) =   1
                l(4) =   1
                l(5) =   2
                l(6) =   2
     Q(r) pseudized with 0 coefficients

     atomic species   valence    mass     pseudopotential
        Si             4.00    28.08550     Si( 1.00)

     No symmetry found

   Cartesian axes

     site n.     atom                  positions (alat units)
         1           Si  tau(   1) = (   0.4404043   0.4375000   0.4375000  )
         2           Si  tau(   2) = (   0.9375000   0.4375000   0.4375000  )
         3           Si  tau(   3) = (   0.4375000   0.9375000   0.4375000  )
         4           Si  tau(   4) = (   0.9375000   0.9375000   0.4375000  )
         5           Si  tau(   5) = (   0.4375000   0.4375000   0.9375000  )
         6           Si  tau(   6) = (   0.9375000   0.4375000   0.9375000  )
         7           Si  tau(   7) = (   0.4375000   0.9375000   0.9375000  )
         8           Si  tau(   8) = (   0.9375000   0.9375000   0.9375000  )
         9           Si  tau(   9) = (   0.4375000   0.1875000   0.1875000  )
        10           Si  tau(  10) = (   0.9375000   0.1875000   0.1875000  )
        11           Si  tau(  11) = (   0.4375000   0.6875000   0.1875000  )
        12           Si  tau(  12) = (   0.9375000   0.6875000   0.1875000  )
        13           Si  tau(  13) = (   0.4375000   0.1875000   0.6875000  )
        14           Si  tau(  14) = (   0.9375000   0.1875000   0.6875000  )
        15           Si  tau(  15) = (   0.4375000   0.6875000   0.6875000  )
        16           Si  tau(  16) = (   0.9375000   0.6875000   0.6875000  )
        17           Si  tau(  17) = (   0.1875000   0.4375000   0.1875000  )
        18           Si  tau(  18) = (   0.6875000   0.4375000   0.1875000  )
        19           Si  tau(  19) = (   0.1875000   0.9375000   0.1875000  )
        20           Si  tau(  20) = (   0.6875000   0.9375000   0.1875000  )
        21           Si  tau(  21) = (   0.1875000   0.4375000   0.6875000  )
        22           Si  tau(  22) = (   0.6875000   0.4375000   0.6875000  )
        23           Si  tau(  23) = (   0.1875000   0.9375000   0.6875000  )
        24           Si  tau(  24) = (   0.6875000   0.9375000   0.6875000  )
        25           Si  tau(  25) = (   0.1875000   0.1875000   0.4375000  )
        26           Si  tau(  26) = (   0.6875000   0.1875000   0.4375000  )
        27           Si  tau(  27) = (   0.1875000   0.6875000   0.4375000  )
        28           Si  tau(  28) = (   0.6875000   0.6875000   0.4375000  )
        29           Si  tau(  29) = (   0.1875000   0.1875000   0.9375000  )
        30           Si  tau(  30) = (   0.6875000   0.1875000   0.9375000  )
        31           Si  tau(  31) = (   0.1875000   0.6875000   0.9375000  )
        32           Si  tau(  32) = (   0.6875000   0.6875000   0.9375000  )
        33           Si  tau(  33) = (   0.0625000   0.0625000   0.0625000  )
        34           Si  tau(  34) = (   0.5625000   0.0625000   0.0625000  )
        35           Si  tau(  35) = (   0.0625000   0.5625000   0.0625000  )
        36           Si  tau(  36) = (   0.5625000   0.5625000   0.0625000  )
        37           Si  tau(  37) = (   0.0625000   0.0625000   0.5625000  )
        38           Si  tau(  38) = (   0.5625000   0.0625000   0.5625000  )
        39           Si  tau(  39) = (   0.0625000   0.5625000   0.5625000  )
        40           Si  tau(  40) = (   0.5625000   0.5625000   0.5625000  )
        41           Si  tau(  41) = (   0.0625000   0.3125000   0.3125000  )
        42           Si  tau(  42) = (   0.5625000   0.3125000   0.3125000  )
        43           Si  tau(  43) = (   0.0625000   0.8125000   0.3125000  )
        44           Si  tau(  44) = (   0.5625000   0.8125000   0.3125000  )
        45           Si  tau(  45) = (   0.0625000   0.3125000   0.8125000  )
        46           Si  tau(  46) = (   0.5625000   0.3125000   0.8125000  )
        47           Si  tau(  47) = (   0.0625000   0.8125000   0.8125000  )
        48           Si  tau(  48) = (   0.5625000   0.8125000   0.8125000  )
        49           Si  tau(  49) = (   0.3125000   0.0625000   0.3125000  )
        50           Si  tau(  50) = (   0.8125000   0.0625000   0.3125000  )
        51           Si  tau(  51) = (   0.3125000   0.5595957   0.3125000  )
        52           Si  tau(  52) = (   0.8125000   0.5625000   0.3125000  )
        53           Si  tau(  53) = (   0.3125000   0.0625000   0.8125000  )
        54           Si  tau(  54) = (   0.8125000   0.0625000   0.8125000  )
        55           Si  tau(  55) = (   0.3125000   0.5625000   0.8125000  )
        56           Si  tau(  56) = (   0.8125000   0.5625000   0.8125000  )
        57           Si  tau(  57) = (   0.3125000   0.3125000   0.0625000  )
        58           Si  tau(  58) = (   0.8125000   0.3125000   0.0625000  )
        59           Si  tau(  59) = (   0.3125000   0.8125000   0.0625000  )
        60           Si  tau(  60) = (   0.8125000   0.8125000   0.0625000  )
        61           Si  tau(  61) = (   0.3125000   0.3125000   0.5625000  )
        62           Si  tau(  62) = (   0.8125000   0.3125000   0.5625000  )
        63           Si  tau(  63) = (   0.3125000   0.8125000   0.5625000  )
        64           Si  tau(  64) = (   0.8125000   0.8125000   0.5625000  )

     number of k points=     4  gaussian smearing, width (Ry)=  0.0100
                       cart. coord. in units 2pi/alat
        k(    1) = (   0.2500000   0.2500000   0.2500000), wk =   0.5000000
        k(    2) = (  -0.2500000  -0.2500000   0.2500000), wk =   0.5000000
        k(    3) = (  -0.2500000   0.2500000  -0.2500000), wk =   0.5000000
        k(    4) = (   0.2500000  -0.2500000  -0.2500000), wk =   0.5000000

     Check: negative/imaginary core charge=   -0.000001    0.000000

     Initial potential from superposition of free atoms

     starting charge  255.96421, renormalised to  256.00000
     Starting wfcs are  256 randomized atomic wfcs

     Self-consistent Calculation

     iteration #  1     ecut=    50.00 Ry     beta= 0.70
     Davidson diagonalization with overlap
     ethr =  1.00E-02,  avg # of iterations =  3.0

     Threshold (ethr) on eigenvalues was too large:
     Diagonalizing with lowered threshold

     Davidson diagonalization with overlap
     ethr =  6.78E-04,  avg # of iterations =  2.0

     total energy              =    -730.80287704 Ry
     Harris-Foulkes estimate   =    -731.20888241 Ry
     estimated scf accuracy    <       1.72025114 Ry

[...]

     total energy              =    -730.88018287 Ry
     Harris-Foulkes estimate   =    -730.88018287 Ry
     estimated scf accuracy    <       0.00000001 Ry

     iteration # 12     ecut=    50.00 Ry     beta= 0.70
     Davidson diagonalization with overlap
     ethr =  4.31E-12,  avg # of iterations =  3.0

     End of self-consistent calculation

          k = 0.2500 0.2500 0.2500 ( 52563 PWs)   bands (ev):

    -5.6274  -5.1039  -5.0976  -5.0967  -4.6045  -4.5985  -4.5975  -4.1660
    -4.0714  -4.0655  -4.0639  -3.6617  -3.6525  -3.6510  -3.6509  -3.6484
    -3.6467  -3.4640  -3.4595  -3.4565  -2.9658  -2.9610  -2.9578  -2.5986
    -2.5943  -2.5911  -2.4351  -2.4270  -2.4263  -2.4258  -2.4225  -2.4211
    -0.8903  -0.8860  -0.8841  -0.8836  -0.8798  -0.8780  -0.7887  -0.7860
    -0.7819  -0.6690  -0.6679  -0.6619  -0.5948  -0.5836  -0.5808   0.1165
     0.2000   0.2031   0.2048   0.2052   0.2094   0.2140   1.0704   1.0780
     1.0815   1.4091   1.4119   1.4150   2.0182   2.0199   2.0217   2.0237
     2.0251   2.0267   2.0804   2.0825   2.0854   2.6297   2.6309   2.6333
     2.7330   2.7339   2.7364   2.7380   2.7413   2.7436   2.7899   2.7925
     2.7951   3.0943   3.0973   3.1005   3.1018   3.1033   3.1056   3.3641
     3.3666   3.3672   3.3777   3.3804   3.3835   3.7206   3.7274   3.7291
     3.7432   3.7469   3.7501   3.8312   3.8335   3.8361   4.0957   4.1001
     4.1063   4.1075   4.1079   4.1093   4.1453   4.1477   4.1508   4.4027
     4.4639   4.4669   4.4680   4.7066   4.7090   4.7124   4.7610   4.7696
     4.7716   4.9279   4.9330   5.2358   5.2389   5.2434   5.7166   5.7225
     6.9287   6.9327   6.9346   7.3676   7.3724   7.3740   7.5982   7.8548
     7.8588   7.8603   7.9815   7.9838   7.9884   8.1428   8.1451   8.1478
     8.1629   8.1665   8.1681   8.3884   8.3894   8.3960   8.3969   8.3978
     8.4013   8.4464

          k =-0.2500-0.2500 0.2500 ( 52563 PWs)   bands (ev):

[...]

          k =-0.2500 0.2500-0.2500 ( 52563 PWs)   bands (ev):

[...]

          k = 0.2500-0.2500-0.2500 ( 52563 PWs)   bands (ev):

    -5.6274  -5.1029  -5.0993  -5.0958  -4.6038  -4.6001  -4.5966  -4.1669
    -4.0706  -4.0674  -4.0641  -3.6610  -3.6534  -3.6513  -3.6513  -3.6492
    -3.6420  -3.4634  -3.4594  -3.4549  -2.9667  -2.9634  -2.9602  -2.5981
    -2.5943  -2.5906  -2.4350  -2.4279  -2.4261  -2.4260  -2.4241  -2.4167
    -0.8930  -0.8851  -0.8840  -0.8839  -0.8829  -0.8761  -0.7900  -0.7863
    -0.7830  -0.6732  -0.6682  -0.6626  -0.5879  -0.5821  -0.5761   0.1202
     0.1958   0.2040   0.2045   0.2046   0.2051   0.2136   1.0745   1.0791
     1.0837   1.4080   1.4120   1.4158   2.0189   2.0200   2.0212   2.0239
     2.0247   2.0254   2.0794   2.0816   2.0844   2.6310   2.6332   2.6356
     2.7303   2.7338   2.7361   2.7369   2.7389   2.7420   2.7871   2.7908
     2.7932   3.0939   3.0996   3.1003   3.1010   3.1017   3.1071   3.3627
     3.3650   3.3664   3.3756   3.3792   3.3833   3.7232   3.7279   3.7315
     3.7458   3.7498   3.7546   3.8292   3.8324   3.8357   4.0987   4.1051
     4.1069   4.1074   4.1091   4.1155   4.1433   4.1464   4.1507   4.4068
     4.4617   4.4641   4.4661   4.7036   4.7073   4.7107   4.7680   4.7719
     4.7767   4.9249   4.9337   5.2321   5.2364   5.2414   5.7123   5.7221
     6.9270   6.9301   6.9336   7.3671   7.3706   7.3739   7.5967   7.8530
     7.8562   7.8597   7.9820   7.9861   7.9900   8.1438   8.1451   8.1459
     8.1629   8.1646   8.1671   8.3883   8.3939   8.3968   8.3970   8.3999
     8.4048   8.4441

     the Fermi energy is     6.3202 ev

!    total energy              =    -730.88018287 Ry
     Harris-Foulkes estimate   =    -730.88018287 Ry
     estimated scf accuracy    <          2.9E-09 Ry

     The total energy is the sum of the following terms:

     one-electron contribution =     160.47455865 Ry
     hartree contribution      =      35.78656620 Ry
     xc contribution           =    -393.13379502 Ry
     ewald contribution        =    -534.00751270 Ry
     smearing contrib. (-TS)   =      -0.00000000 Ry

     convergence has been achieved in  12 iterations

     Forces acting on atoms (cartesian axes, Ry/au):

     atom    1 type  1   force =    -0.01354555   -0.00373456    0.00242095
     atom    2 type  1   force =     0.00006222    0.00005935    0.00005005
     atom    3 type  1   force =     0.00009317    0.00000983    0.00003734
     atom    4 type  1   force =     0.00001734   -0.00002597    0.00002613
     atom    5 type  1   force =     0.00010397    0.00005962    0.00003780
     atom    6 type  1   force =     0.00002083   -0.00025899    0.00002778
     atom    7 type  1   force =    -0.00044829   -0.00002646    0.00002663
     atom    8 type  1   force =     0.00005741    0.00001934    0.00003018
     atom    9 type  1   force =    -0.00056871    0.00012409    0.00015139
     atom   10 type  1   force =    -0.00002413   -0.00001942    0.00003816
     atom   11 type  1   force =    -0.00303601   -0.00373368    0.00239494
     atom   12 type  1   force =    -0.00003395    0.00006676    0.00004172
     atom   13 type  1   force =    -0.00055394   -0.00013945    0.00013764
     atom   14 type  1   force =    -0.00002787    0.00001048    0.00004002
     atom   15 type  1   force =    -0.00057783   -0.00005678   -0.00007722
     atom   16 type  1   force =    -0.00002715   -0.00026451    0.00001888
     atom   17 type  1   force =    -0.00250452   -0.00407107   -0.00251894
     atom   18 type  1   force =     0.00019965   -0.00005457   -0.00027969
     atom   19 type  1   force =     0.00000658    0.00000085   -0.00011462
     atom   20 type  1   force =     0.00001853   -0.00003683    0.00005019
     atom   21 type  1   force =     0.00018123    0.00016763   -0.00026143
     atom   22 type  1   force =     0.00020960   -0.00014296    0.00019918
     atom   23 type  1   force =     0.00001619   -0.00001597    0.00005203
     atom   24 type  1   force =     0.00001358    0.00002945   -0.00010668
     atom   25 type  1   force =     0.00026746    0.00023449   -0.00014800
     atom   26 type  1   force =     0.00026517   -0.00025898   -0.00014450
     atom   27 type  1   force =     0.00274090   -0.00406536   -0.00240659
     atom   28 type  1   force =     0.00027497    0.00028786    0.00006464
     atom   29 type  1   force =     0.00007336   -0.00010573   -0.00003606
     atom   30 type  1   force =     0.00007499    0.00009529   -0.00004118
     atom   31 type  1   force =     0.00009485    0.00013285   -0.00002562
     atom   32 type  1   force =     0.00007178   -0.00033143   -0.00001904
     atom   33 type  1   force =    -0.00000958    0.00002914    0.00003965
     atom   34 type  1   force =     0.00026650    0.00002501    0.00001790
     atom   35 type  1   force =     0.00013994    0.00055809    0.00013891
     atom   36 type  1   force =     0.00005209    0.00057712   -0.00007302
     atom   37 type  1   force =     0.00001656    0.00002333    0.00003755
     atom   38 type  1   force =    -0.00006665    0.00003653    0.00003982
     atom   39 type  1   force =    -0.00012115    0.00056166    0.00014630
     atom   40 type  1   force =     0.00383957    0.00326619    0.00262727
     atom   41 type  1   force =    -0.00023968   -0.00027482   -0.00015052
     atom   42 type  1   force =     0.00418606   -0.00297335   -0.00261575
     atom   43 type  1   force =     0.00025107   -0.00025571   -0.00013603
     atom   44 type  1   force =    -0.00028149   -0.00026746    0.00006001
     atom   45 type  1   force =     0.00010259   -0.00007105   -0.00003512
     atom   46 type  1   force =    -0.00013537   -0.00009290   -0.00002960
     atom   47 type  1   force =    -0.00009745   -0.00007311   -0.00003932
     atom   48 type  1   force =     0.00033476   -0.00007193   -0.00001806
     atom   49 type  1   force =    -0.00005687   -0.00006023    0.00004940
     atom   50 type  1   force =     0.00002886   -0.00002071    0.00003189
     atom   51 type  1   force =     0.00407050    0.01332098    0.00282533
     atom   52 type  1   force =    -0.00000959   -0.00009121    0.00003695
     atom   53 type  1   force =     0.00025451   -0.00002130    0.00002834
     atom   54 type  1   force =    -0.00002029   -0.00005637    0.00002955
     atom   55 type  1   force =    -0.00005578   -0.00010700    0.00003688
     atom   56 type  1   force =     0.00002822    0.00044692    0.00002545
     atom   57 type  1   force =    -0.00017157   -0.00018735   -0.00026605
     atom   58 type  1   force =     0.00002035   -0.00001445    0.00004826
     atom   59 type  1   force =     0.00014602   -0.00020247    0.00019863
     atom   60 type  1   force =    -0.00002965   -0.00001416   -0.00010708
     atom   61 type  1   force =     0.00395016    0.00227311   -0.00227365
     atom   62 type  1   force =    -0.00000077   -0.00000754   -0.00011195
     atom   63 type  1   force =     0.00005436   -0.00019383   -0.00027466
     atom   64 type  1   force =     0.00003795   -0.00001629    0.00004667

     Total force =     0.024282     Total SCF correction =     0.000098

     Writing output data file pwscf.save/

     General routines

     Parallel routines

   This run was terminated on:  21:46:24  14Feb2020

   JOB DONE.