     Program PWSCF v.6.3MaX starts on 14Feb2020 at 22: 7: 9

     R & G space division:  proc/nbgrp/npool/nimage =       2
     Waiting for input...
     Reading input from standard input

     Current dimensions of program PWSCF are:
     Max number of different atomic species (ntypx) = 10
     Max number of k-points (npk) =  40000
     Max angular momentum in pseudopotentials (lmaxx) =  3

     Subspace diagonalization in iterative solution of the eigenvalue problem:
     a serial algorithm will be used

     bravais-lattice index     =            0
     lattice parameter (alat)  =      20.6591  a.u.
     unit-cell volume          =    8817.2783 (a.u.)^3
     number of atoms/cell      =           64
     number of atomic types    =            1
     number of electrons       =       256.00
     number of Kohn-Sham states=          154
     kinetic-energy cutoff     =      50.0000  Ry
     charge density cutoff     =     200.0000  Ry
     convergence threshold     =      1.0E-08
     mixing beta               =       0.7000
     number of iterations used =            8  plain     mixing
     Exchange-correlation      = PBE ( 1  4  3  4 0 0)

     celldm(1)=  20.659106  celldm(2)=   0.000000  celldm(3)=   0.000000
     celldm(4)=   0.000000  celldm(5)=   0.000000  celldm(6)=   0.000000

     crystal axes: (cart. coord. in units of alat)
               a(1) = (   1.000000   0.000000   0.000000 )
               a(2) = (   0.000000   1.000000   0.000000 )
               a(3) = (   0.000000   0.000000   1.000000 )

     reciprocal axes: (cart. coord. in units 2 pi/alat)
               b(1) = (  1.000000  0.000000  0.000000 )
               b(2) = (  0.000000  1.000000  0.000000 )
               b(3) = (  0.000000  0.000000  1.000000 )

     PseudoPot. # 1 for Si read from file:
     ~/kedar/softwares/SSSP_precision_pseudos/Si.pbe-n-rrkjus_psl.1.0.0.UPF
     MD5 check sum: Not computed, couldn't open file
     Pseudo is Ultrasoft + core correction, Zval =  4.0
     Generated using "atomic" code by A. Dal Corso v.5.1
     Using radial grid of 1141 points,  6 beta functions with:
                l(1) =   0
                l(2) =   0
                l(3) =   1
                l(4) =   1
                l(5) =   2
                l(6) =   2
     Q(r) pseudized with 0 coefficients

     atomic species   valence    mass     pseudopotential
        Si             4.00    28.08550     Si( 1.00)

     No symmetry found

   Cartesian axes

     site n.     atom                  positions (alat units)
         1           Si  tau(   1) = (   0.4404043   0.4375000   0.4375000  )
         2           Si  tau(   2) = (   0.9375000   0.4375000   0.4375000  )
         3           Si  tau(   3) = (   0.4375000   0.9375000   0.4375000  )
         4           Si  tau(   4) = (   0.9375000   0.9375000   0.4375000  )
         5           Si  tau(   5) = (   0.4375000   0.4375000   0.9375000  )
         6           Si  tau(   6) = (   0.9375000   0.4375000   0.9375000  )
         7           Si  tau(   7) = (   0.4375000   0.9375000   0.9375000  )
         8           Si  tau(   8) = (   0.9375000   0.9375000   0.9375000  )
         9           Si  tau(   9) = (   0.4375000   0.1875000   0.1875000  )
        10           Si  tau(  10) = (   0.9375000   0.1875000   0.1875000  )
        11           Si  tau(  11) = (   0.4375000   0.6875000   0.1875000  )
        12           Si  tau(  12) = (   0.9375000   0.6875000   0.1875000  )
        13           Si  tau(  13) = (   0.4375000   0.1875000   0.6875000  )
        14           Si  tau(  14) = (   0.9375000   0.1875000   0.6875000  )
        15           Si  tau(  15) = (   0.4375000   0.6875000   0.6875000  )
        16           Si  tau(  16) = (   0.9375000   0.6875000   0.6875000  )
        17           Si  tau(  17) = (   0.1875000   0.4375000   0.1875000  )
        18           Si  tau(  18) = (   0.6875000   0.4375000   0.1875000  )
        19           Si  tau(  19) = (   0.1875000   0.9375000   0.1875000  )
        20           Si  tau(  20) = (   0.6875000   0.9375000   0.1875000  )
        21           Si  tau(  21) = (   0.1875000   0.4375000   0.6875000  )
        22           Si  tau(  22) = (   0.6875000   0.4375000   0.6875000  )
        23           Si  tau(  23) = (   0.1875000   0.9375000   0.6875000  )
        24           Si  tau(  24) = (   0.6875000   0.9375000   0.6875000  )
        25           Si  tau(  25) = (   0.1875000   0.1875000   0.4375000  )
        26           Si  tau(  26) = (   0.6875000   0.1875000   0.4375000  )
        27           Si  tau(  27) = (   0.1875000   0.6875000   0.4375000  )
        28           Si  tau(  28) = (   0.6875000   0.6875000   0.4375000  )
        29           Si  tau(  29) = (   0.1875000   0.1875000   0.9375000  )
        30           Si  tau(  30) = (   0.6875000   0.1875000   0.9375000  )
        31           Si  tau(  31) = (   0.1875000   0.6875000   0.9375000  )
        32           Si  tau(  32) = (   0.6875000   0.6875000   0.9375000  )
        33           Si  tau(  33) = (   0.0625000   0.0625000   0.0625000  )
        34           Si  tau(  34) = (   0.5625000   0.0625000   0.0625000  )
        35           Si  tau(  35) = (   0.0625000   0.5625000   0.0625000  )
        36           Si  tau(  36) = (   0.5625000   0.5625000   0.0625000  )
        37           Si  tau(  37) = (   0.0625000   0.0625000   0.5625000  )
        38           Si  tau(  38) = (   0.5625000   0.0625000   0.5625000  )
        39           Si  tau(  39) = (   0.0625000   0.5625000   0.5625000  )
        40           Si  tau(  40) = (   0.5625000   0.5625000   0.5625000  )
        41           Si  tau(  41) = (   0.0625000   0.3125000   0.3125000  )
        42           Si  tau(  42) = (   0.5625000   0.3125000   0.3125000  )
        43           Si  tau(  43) = (   0.0625000   0.8125000   0.3125000  )
        44           Si  tau(  44) = (   0.5625000   0.8125000   0.3125000  )
        45           Si  tau(  45) = (   0.0625000   0.3125000   0.8125000  )
        46           Si  tau(  46) = (   0.5625000   0.3125000   0.8125000  )
        47           Si  tau(  47) = (   0.0625000   0.8125000   0.8125000  )
        48           Si  tau(  48) = (   0.5625000   0.8125000   0.8125000  )
        49           Si  tau(  49) = (   0.3125000   0.0625000   0.3125000  )
        50           Si  tau(  50) = (   0.8125000   0.0625000   0.3125000  )
        51           Si  tau(  51) = (   0.3125000   0.5625000   0.3125000  )
        52           Si  tau(  52) = (   0.8125000   0.5654043   0.3125000  )
        53           Si  tau(  53) = (   0.3125000   0.0625000   0.8125000  )
        54           Si  tau(  54) = (   0.8125000   0.0625000   0.8125000  )
        55           Si  tau(  55) = (   0.3125000   0.5625000   0.8125000  )
        56           Si  tau(  56) = (   0.8125000   0.5625000   0.8125000  )
        57           Si  tau(  57) = (   0.3125000   0.3125000   0.0625000  )
        58           Si  tau(  58) = (   0.8125000   0.3125000   0.0625000  )
        59           Si  tau(  59) = (   0.3125000   0.8125000   0.0625000  )
        60           Si  tau(  60) = (   0.8125000   0.8125000   0.0625000  )
        61           Si  tau(  61) = (   0.3125000   0.3125000   0.5625000  )
        62           Si  tau(  62) = (   0.8125000   0.3125000   0.5625000  )
        63           Si  tau(  63) = (   0.3125000   0.8125000   0.5625000  )
        64           Si  tau(  64) = (   0.8125000   0.8125000   0.5625000  )

     number of k points=     4  gaussian smearing, width (Ry)=  0.0100
                       cart. coord. in units 2pi/alat
        k(    1) = (   0.2500000   0.2500000   0.2500000), wk =   0.5000000
        k(    2) = (  -0.2500000  -0.2500000   0.2500000), wk =   0.5000000
        k(    3) = (  -0.2500000   0.2500000  -0.2500000), wk =   0.5000000
        k(    4) = (   0.2500000  -0.2500000  -0.2500000), wk =   0.5000000

     Check: negative/imaginary core charge=   -0.000001    0.000000

     Initial potential from superposition of free atoms

     starting charge  255.96421, renormalised to  256.00000
     Starting wfcs are  256 randomized atomic wfcs

     Self-consistent Calculation

     iteration #  1     ecut=    50.00 Ry     beta= 0.70
     Davidson diagonalization with overlap
     ethr =  1.00E-02,  avg # of iterations =  3.0

     Threshold (ethr) on eigenvalues was too large:
     Diagonalizing with lowered threshold

     Davidson diagonalization with overlap
     ethr =  6.78E-04,  avg # of iterations =  2.0

     total energy              =    -730.80291114 Ry
     Harris-Foulkes estimate   =    -731.20906424 Ry
     estimated scf accuracy    <       1.72062149 Ry

[...]

     total energy              =    -730.88002341 Ry
     Harris-Foulkes estimate   =    -730.88002341 Ry
     estimated scf accuracy    <       0.00000002 Ry

     iteration # 12     ecut=    50.00 Ry     beta= 0.70
     Davidson diagonalization with overlap
     ethr =  6.56E-12,  avg # of iterations =  3.0

     End of self-consistent calculation

          k = 0.2500 0.2500 0.2500 ( 52563 PWs)   bands (ev):

    -5.6275  -5.1020  -5.1000  -5.0960  -4.6028  -4.6008  -4.5970  -4.1670
    -4.0702  -4.0681  -4.0638  -3.6601  -3.6547  -3.6523  -3.6499  -3.6491
    -3.6424  -3.4639  -3.4593  -3.4547  -2.9672  -2.9638  -2.9594  -2.5995
    -2.5943  -2.5894  -2.4344  -2.4289  -2.4272  -2.4249  -2.4233  -2.4171
    -0.8933  -0.8873  -0.8857  -0.8813  -0.8807  -0.8774  -0.7918  -0.7863
    -0.7807  -0.6737  -0.6681  -0.6625  -0.5896  -0.5816  -0.5749   0.1202
     0.1948   0.2011   0.2028   0.2081   0.2097   0.2110   1.0727   1.0792
     1.0853   1.4075   1.4120   1.4164   2.0168   2.0199   2.0224   2.0232
     2.0241   2.0280   2.0788   2.0818   2.0845   2.6302   2.6334   2.6362
     2.7304   2.7321   2.7351   2.7386   2.7396   2.7423   2.7864   2.7897
     2.7946   3.0952   3.0982   3.1001   3.1010   3.1030   3.1063   3.3623
     3.3643   3.3669   3.3754   3.3797   3.3836   3.7243   3.7281   3.7303
     3.7454   3.7494   3.7550   3.8294   3.8329   3.8349   4.0986   4.1051
     4.1061   4.1082   4.1100   4.1147   4.1434   4.1473   4.1495   4.4069
     4.4605   4.4636   4.4676   4.7040   4.7076   4.7103   4.7660   4.7721
     4.7786   4.9249   4.9337   5.2321   5.2372   5.2406   5.7122   5.7221
     6.9270   6.9296   6.9341   7.3653   7.3724   7.3738   7.5967   7.8514
     7.8576   7.8598   7.9815   7.9861   7.9905   8.1407   8.1450   8.1483
     8.1623   8.1638   8.1693   8.3893   8.3926   8.3961   8.3987   8.4010
     8.4030   8.4443

          k =-0.2500-0.2500 0.2500 ( 52563 PWs)   bands (ev):

[...]

          k =-0.2500 0.2500-0.2500 ( 52563 PWs)   bands (ev):

[...]

          k = 0.2500-0.2500-0.2500 ( 52563 PWs)   bands (ev):

    -5.6274  -5.1021  -5.0994  -5.0968  -4.6029  -4.6000  -4.5976  -4.1660
    -4.0696  -4.0670  -4.0644  -3.6612  -3.6557  -3.6503  -3.6497  -3.6481
    -3.6463  -3.4647  -3.4589  -3.4566  -2.9645  -2.9613  -2.9588  -2.6006
    -2.5927  -2.5908  -2.4342  -2.4311  -2.4248  -2.4246  -2.4220  -2.4212
    -0.8918  -0.8886  -0.8823  -0.8813  -0.8797  -0.8787  -0.7916  -0.7837
    -0.7811  -0.6698  -0.6674  -0.6616  -0.5915  -0.5867  -0.5809   0.1164
     0.1969   0.2019   0.2063   0.2095   0.2103   0.2117   1.0713   1.0771
     1.0815   1.4102   1.4107   1.4151   2.0183   2.0200   2.0226   2.0234
     2.0242   2.0264   2.0814   2.0823   2.0850   2.6284   2.6320   2.6335
     2.7324   2.7345   2.7363   2.7388   2.7403   2.7432   2.7904   2.7916
     2.7958   3.0948   3.0978   3.1007   3.1022   3.1026   3.1045   3.3640
     3.3653   3.3682   3.3788   3.3793   3.3840   3.7225   3.7259   3.7289
     3.7427   3.7474   3.7498   3.8310   3.8343   3.8356   4.0971   4.0993
     4.1049   4.1071   4.1084   4.1095   4.1452   4.1488   4.1502   4.4027
     4.4638   4.4649   4.4700   4.7063   4.7100   4.7116   4.7629   4.7677
     4.7716   4.9280   4.9331   5.2354   5.2405   5.2423   5.7167   5.7224
     6.9285   6.9323   6.9351   7.3670   7.3719   7.3750   7.5982   7.8541
     7.8589   7.8608   7.9813   7.9834   7.9892   8.1425   8.1454   8.1480
     8.1625   8.1644   8.1703   8.3878   8.3912   8.3941   8.3968   8.3990
     8.4007   8.4466

     the Fermi energy is     6.3204 ev

!    total energy              =    -730.88002341 Ry
     Harris-Foulkes estimate   =    -730.88002341 Ry
     estimated scf accuracy    <          4.2E-09 Ry

     The total energy is the sum of the following terms:

     one-electron contribution =     160.47308767 Ry
     hartree contribution      =      35.78723994 Ry
     xc contribution           =    -393.13399332 Ry
     ewald contribution        =    -534.00635771 Ry
     smearing contrib. (-TS)   =      -0.00000000 Ry

     convergence has been achieved in  12 iterations

     Forces acting on atoms (cartesian axes, Ry/au):

     atom    1 type  1   force =    -0.01609046   -0.00005834   -0.00005069
     atom    2 type  1   force =    -0.00248639    0.00383958   -0.00251203
     atom    3 type  1   force =     0.00002872    0.00002833   -0.00002947
     atom    4 type  1   force =    -0.00004364   -0.00000965   -0.00003786
     atom    5 type  1   force =     0.00002878    0.00025520   -0.00002831
     atom    6 type  1   force =    -0.00005801   -0.00005757   -0.00003489
     atom    7 type  1   force =    -0.00050694   -0.00001901   -0.00002968
     atom    8 type  1   force =    -0.00000300    0.00002875   -0.00002619
     atom    9 type  1   force =    -0.00050611    0.00014110    0.00008704
     atom   10 type  1   force =     0.00004003   -0.00000081   -0.00002707
     atom   11 type  1   force =    -0.00048847    0.00005124   -0.00015915
     atom   12 type  1   force =     0.00273852    0.00396693   -0.00274515
     atom   13 type  1   force =    -0.00049499   -0.00012932    0.00007927
     atom   14 type  1   force =     0.00002909    0.00001718   -0.00001561
     atom   15 type  1   force =    -0.00050052    0.00014321   -0.00014171
     atom   16 type  1   force =     0.00004961   -0.00006768   -0.00004807
     atom   17 type  1   force =     0.00026653   -0.00016792    0.00027547
     atom   18 type  1   force =     0.00274852    0.00372450    0.00227956
     atom   19 type  1   force =     0.00007017    0.00002029   -0.00004679
     atom   20 type  1   force =     0.00008162   -0.00001941    0.00011357
     atom   21 type  1   force =     0.00025921    0.00036403   -0.00019661
     atom   22 type  1   force =     0.00028699    0.00005819    0.00026667
     atom   23 type  1   force =     0.00007422   -0.00000972    0.00010691
     atom   24 type  1   force =     0.00007373    0.00003806   -0.00005030
     atom   25 type  1   force =     0.00020518    0.00025027   -0.00008476
     atom   26 type  1   force =     0.00020056   -0.00023952   -0.00007693
     atom   27 type  1   force =     0.00019226   -0.00028306    0.00015823
     atom   28 type  1   force =    -0.00249730    0.00418915    0.00285042
     atom   29 type  1   force =     0.00001347   -0.00009635    0.00002229
     atom   30 type  1   force =     0.00001701    0.00010310    0.00001566
     atom   31 type  1   force =     0.00001599    0.00033561    0.00003908
     atom   32 type  1   force =    -0.00000558   -0.00013651    0.00004666
     atom   33 type  1   force =    -0.00002864    0.00003276    0.00004160
     atom   34 type  1   force =     0.00024828    0.00003140    0.00001875
     atom   35 type  1   force =    -0.00008833   -0.00050325    0.00014093
     atom   36 type  1   force =    -0.00016775   -0.00047737   -0.00007328
     atom   37 type  1   force =     0.00003624    0.00002767    0.00003515
     atom   38 type  1   force =    -0.00004902    0.00003917    0.00003951
     atom   39 type  1   force =     0.00009895   -0.00048843    0.00014571
     atom   40 type  1   force =     0.00407290    0.00220567    0.00262200
     atom   41 type  1   force =    -0.00023453    0.00019269   -0.00014819
     atom   42 type  1   force =     0.00418226   -0.00250524   -0.00262585
     atom   43 type  1   force =     0.00025571    0.00021254   -0.00014156
     atom   44 type  1   force =    -0.00028751    0.00020012    0.00006612
     atom   45 type  1   force =     0.00010353    0.00001618   -0.00003431
     atom   46 type  1   force =    -0.00013532   -0.00000439   -0.00002809
     atom   47 type  1   force =    -0.00009579    0.00001414   -0.00003949
     atom   48 type  1   force =     0.00033440    0.00001432   -0.00001944
     atom   49 type  1   force =    -0.00005843   -0.00004251    0.00004995
     atom   50 type  1   force =     0.00002981   -0.00000295    0.00002914
     atom   51 type  1   force =     0.00383863   -0.00245539    0.00251011
     atom   52 type  1   force =    -0.00000867   -0.01608963    0.00003791
     atom   53 type  1   force =     0.00025504   -0.00000133    0.00002822
     atom   54 type  1   force =    -0.00001978   -0.00003611    0.00003018
     atom   55 type  1   force =    -0.00005521   -0.00052724    0.00003667
     atom   56 type  1   force =     0.00002642    0.00002586    0.00002714
     atom   57 type  1   force =    -0.00004757    0.00009326   -0.00011220
     atom   58 type  1   force =     0.00013893    0.00026103    0.00019774
     atom   59 type  1   force =     0.00026375    0.00007189    0.00004840
     atom   60 type  1   force =     0.00009522    0.00026783   -0.00025866
     atom   61 type  1   force =     0.00383029    0.00255471   -0.00243388
     atom   62 type  1   force =    -0.00012049    0.00026752   -0.00026169
     atom   63 type  1   force =    -0.00006575    0.00008125   -0.00012745
     atom   64 type  1   force =    -0.00008637    0.00026402    0.00019927

     Total force =     0.027433     Total SCF correction =     0.000119

     Writing output data file pwscf.save/

     General routines

     Parallel routines

   This run was terminated on:  22:42:39  14Feb2020

   JOB DONE.