     Program PWSCF v.6.3MaX starts on 14Feb2020 at 22:40:49

     R & G space division:  proc/nbgrp/npool/nimage =       2
     Waiting for input...
     Reading input from standard input

     Current dimensions of program PWSCF are:
     Max number of different atomic species (ntypx) = 10
     Max number of k-points (npk) =  40000
     Max angular momentum in pseudopotentials (lmaxx) =  3

     Subspace diagonalization in iterative solution of the eigenvalue problem:
     a serial algorithm will be used

     bravais-lattice index     =            0
     lattice parameter (alat)  =      20.6591  a.u.
     unit-cell volume          =    8817.2783 (a.u.)^3
     number of atoms/cell      =           64
     number of atomic types    =            1
     number of electrons       =       256.00
     number of Kohn-Sham states=          154
     kinetic-energy cutoff     =      50.0000  Ry
     charge density cutoff     =     200.0000  Ry
     convergence threshold     =      1.0E-08
     mixing beta               =       0.7000
     number of iterations used =            8  plain     mixing
     Exchange-correlation      = PBE ( 1  4  3  4 0 0)

     celldm(1)=  20.659106  celldm(2)=   0.000000  celldm(3)=   0.000000
     celldm(4)=   0.000000  celldm(5)=   0.000000  celldm(6)=   0.000000

     crystal axes: (cart. coord. in units of alat)
               a(1) = (   1.000000   0.000000   0.000000 )
               a(2) = (   0.000000   1.000000   0.000000 )
               a(3) = (   0.000000   0.000000   1.000000 )

     reciprocal axes: (cart. coord. in units 2 pi/alat)
               b(1) = (  1.000000  0.000000  0.000000 )
               b(2) = (  0.000000  1.000000  0.000000 )
               b(3) = (  0.000000  0.000000  1.000000 )

     PseudoPot. # 1 for Si read from file:
     ~/kedar/softwares/SSSP_precision_pseudos/Si.pbe-n-rrkjus_psl.1.0.0.UPF
     MD5 check sum: Not computed, couldn't open file
     Pseudo is Ultrasoft + core correction, Zval =  4.0
     Generated using "atomic" code by A. Dal Corso v.5.1
     Using radial grid of 1141 points,  6 beta functions with:
                l(1) =   0
                l(2) =   0
                l(3) =   1
                l(4) =   1
                l(5) =   2
                l(6) =   2
     Q(r) pseudized with 0 coefficients

     atomic species   valence    mass     pseudopotential
        Si             4.00    28.08550     Si( 1.00)

     No symmetry found

   Cartesian axes

     site n.     atom                  positions (alat units)
         1           Si  tau(   1) = (   0.4404043   0.4375000   0.4375000  )
         2           Si  tau(   2) = (   0.9375000   0.4375000   0.4375000  )
         3           Si  tau(   3) = (   0.4375000   0.9375000   0.4375000  )
         4           Si  tau(   4) = (   0.9375000   0.9375000   0.4375000  )
         5           Si  tau(   5) = (   0.4375000   0.4375000   0.9375000  )
         6           Si  tau(   6) = (   0.9375000   0.4375000   0.9375000  )
         7           Si  tau(   7) = (   0.4375000   0.9375000   0.9375000  )
         8           Si  tau(   8) = (   0.9375000   0.9375000   0.9375000  )
         9           Si  tau(   9) = (   0.4375000   0.1875000   0.1875000  )
        10           Si  tau(  10) = (   0.9375000   0.1875000   0.1875000  )
        11           Si  tau(  11) = (   0.4375000   0.6875000   0.1875000  )
        12           Si  tau(  12) = (   0.9375000   0.6875000   0.1875000  )
        13           Si  tau(  13) = (   0.4375000   0.1875000   0.6875000  )
        14           Si  tau(  14) = (   0.9375000   0.1875000   0.6875000  )
        15           Si  tau(  15) = (   0.4375000   0.6875000   0.6875000  )
        16           Si  tau(  16) = (   0.9375000   0.6875000   0.6875000  )
        17           Si  tau(  17) = (   0.1875000   0.4375000   0.1875000  )
        18           Si  tau(  18) = (   0.6875000   0.4375000   0.1875000  )
        19           Si  tau(  19) = (   0.1875000   0.9375000   0.1875000  )
        20           Si  tau(  20) = (   0.6875000   0.9375000   0.1875000  )
        21           Si  tau(  21) = (   0.1875000   0.4375000   0.6875000  )
        22           Si  tau(  22) = (   0.6875000   0.4375000   0.6875000  )
        23           Si  tau(  23) = (   0.1875000   0.9375000   0.6875000  )
        24           Si  tau(  24) = (   0.6875000   0.9375000   0.6875000  )
        25           Si  tau(  25) = (   0.1875000   0.1875000   0.4375000  )
        26           Si  tau(  26) = (   0.6875000   0.1875000   0.4375000  )
        27           Si  tau(  27) = (   0.1875000   0.6875000   0.4375000  )
        28           Si  tau(  28) = (   0.6875000   0.6875000   0.4375000  )
        29           Si  tau(  29) = (   0.1875000   0.1875000   0.9375000  )
        30           Si  tau(  30) = (   0.6875000   0.1875000   0.9375000  )
        31           Si  tau(  31) = (   0.1875000   0.6875000   0.9375000  )
        32           Si  tau(  32) = (   0.6875000   0.6875000   0.9375000  )
        33           Si  tau(  33) = (   0.0625000   0.0625000   0.0625000  )
        34           Si  tau(  34) = (   0.5625000   0.0625000   0.0625000  )
        35           Si  tau(  35) = (   0.0625000   0.5625000   0.0625000  )
        36           Si  tau(  36) = (   0.5625000   0.5625000   0.0625000  )
        37           Si  tau(  37) = (   0.0625000   0.0625000   0.5625000  )
        38           Si  tau(  38) = (   0.5625000   0.0625000   0.5625000  )
        39           Si  tau(  39) = (   0.0625000   0.5625000   0.5625000  )
        40           Si  tau(  40) = (   0.5625000   0.5625000   0.5625000  )
        41           Si  tau(  41) = (   0.0625000   0.3125000   0.3125000  )
        42           Si  tau(  42) = (   0.5625000   0.3125000   0.3125000  )
        43           Si  tau(  43) = (   0.0625000   0.8125000   0.3125000  )
        44           Si  tau(  44) = (   0.5625000   0.8125000   0.3125000  )
        45           Si  tau(  45) = (   0.0625000   0.3125000   0.8125000  )
        46           Si  tau(  46) = (   0.5625000   0.3125000   0.8125000  )
        47           Si  tau(  47) = (   0.0625000   0.8125000   0.8125000  )
        48           Si  tau(  48) = (   0.5625000   0.8125000   0.8125000  )
        49           Si  tau(  49) = (   0.3125000   0.0625000   0.3125000  )
        50           Si  tau(  50) = (   0.8125000   0.0625000   0.3125000  )
        51           Si  tau(  51) = (   0.3125000   0.5625000   0.3125000  )
        52           Si  tau(  52) = (   0.8125000   0.5625000   0.3125000  )
        53           Si  tau(  53) = (   0.3125000   0.0595957   0.8125000  )
        54           Si  tau(  54) = (   0.8125000   0.0625000   0.8125000  )
        55           Si  tau(  55) = (   0.3125000   0.5625000   0.8125000  )
        56           Si  tau(  56) = (   0.8125000   0.5625000   0.8125000  )
        57           Si  tau(  57) = (   0.3125000   0.3125000   0.0625000  )
        58           Si  tau(  58) = (   0.8125000   0.3125000   0.0625000  )
        59           Si  tau(  59) = (   0.3125000   0.8125000   0.0625000  )
        60           Si  tau(  60) = (   0.8125000   0.8125000   0.0625000  )
        61           Si  tau(  61) = (   0.3125000   0.3125000   0.5625000  )
        62           Si  tau(  62) = (   0.8125000   0.3125000   0.5625000  )
        63           Si  tau(  63) = (   0.3125000   0.8125000   0.5625000  )
        64           Si  tau(  64) = (   0.8125000   0.8125000   0.5625000  )

     number of k points=     4  gaussian smearing, width (Ry)=  0.0100
                       cart. coord. in units 2pi/alat
        k(    1) = (   0.2500000   0.2500000   0.2500000), wk =   0.5000000
        k(    2) = (  -0.2500000  -0.2500000   0.2500000), wk =   0.5000000
        k(    3) = (  -0.2500000   0.2500000  -0.2500000), wk =   0.5000000
        k(    4) = (   0.2500000  -0.2500000  -0.2500000), wk =   0.5000000

     Check: negative/imaginary core charge=   -0.000001    0.000000

     Initial potential from superposition of free atoms

     starting charge  255.96421, renormalised to  256.00000
     Starting wfcs are  256 randomized atomic wfcs

     Self-consistent Calculation

     iteration #  1     ecut=    50.00 Ry     beta= 0.70
     Davidson diagonalization with overlap
     ethr =  1.00E-02,  avg # of iterations =  3.0

     Threshold (ethr) on eigenvalues was too large:
     Diagonalizing with lowered threshold

     Davidson diagonalization with overlap
     ethr =  6.78E-04,  avg # of iterations =  2.0

     total energy              =    -730.80278389 Ry
     Harris-Foulkes estimate   =    -731.20887998 Ry
     estimated scf accuracy    <       1.72045558 Ry

[...]

     total energy              =    -730.88002718 Ry
     Harris-Foulkes estimate   =    -730.88002719 Ry
     estimated scf accuracy    <       0.00000002 Ry

     iteration # 12     ecut=    50.00 Ry     beta= 0.70
     Davidson diagonalization with overlap
     ethr =  6.61E-12,  avg # of iterations =  3.0

     End of self-consistent calculation

          k = 0.2500 0.2500 0.2500 ( 52563 PWs)   bands (ev):

    -5.6274  -5.1039  -5.0978  -5.0967  -4.6046  -4.5984  -4.5975  -4.1661
    -4.0714  -4.0654  -4.0641  -3.6593  -3.6579  -3.6504  -3.6488  -3.6480
    -3.6472  -3.4641  -3.4594  -3.4565  -2.9664  -2.9599  -2.9585  -2.5987
    -2.5944  -2.5912  -2.4344  -2.4309  -2.4251  -2.4240  -2.4223  -2.4212
    -0.8932  -0.8886  -0.8828  -0.8814  -0.8794  -0.8774  -0.7886  -0.7858
    -0.7819  -0.6691  -0.6679  -0.6618  -0.5919  -0.5859  -0.5813   0.1164
     0.1984   0.1998   0.2057   0.2091   0.2101   0.2136   1.0728   1.0758
     1.0813   1.4094   1.4117   1.4148   2.0178   2.0207   2.0222   2.0233
     2.0250   2.0262   2.0803   2.0835   2.0847   2.6297   2.6308   2.6333
     2.7332   2.7345   2.7355   2.7377   2.7413   2.7438   2.7893   2.7925
     2.7957   3.0945   3.0961   3.1003   3.1022   3.1036   3.1060   3.3640
     3.3662   3.3673   3.3777   3.3808   3.3837   3.7213   3.7266   3.7288
     3.7434   3.7471   3.7500   3.8308   3.8330   3.8370   4.0957   4.1013
     4.1048   4.1064   4.1084   4.1096   4.1450   4.1472   4.1517   4.4027
     4.4639   4.4669   4.4680   4.7060   4.7084   4.7134   4.7638   4.7669
     4.7714   4.9280   4.9330   5.2352   5.2382   5.2447   5.7167   5.7225
     6.9286   6.9327   6.9345   7.3671   7.3705   7.3763   7.5982   7.8543
     7.8578   7.8617   7.9816   7.9839   7.9884   8.1429   8.1450   8.1477
     8.1627   8.1668   8.1680   8.3891   8.3908   8.3944   8.3957   8.3990
     8.4007   8.4466

          k =-0.2500-0.2500 0.2500 ( 52563 PWs)   bands (ev):

[...]

          k =-0.2500 0.2500-0.2500 ( 52563 PWs)   bands (ev):

[...]

          k = 0.2500-0.2500-0.2500 ( 52563 PWs)   bands (ev):

    -5.6275  -5.1039  -5.0985  -5.0956  -4.6047  -4.5994  -4.5966  -4.1671
    -4.0721  -4.0664  -4.0636  -3.6601  -3.6542  -3.6526  -3.6494  -3.6492
    -3.6429  -3.4635  -3.4594  -3.4551  -2.9689  -2.9622  -2.9593  -2.5982
    -2.5942  -2.5907  -2.4342  -2.4293  -2.4275  -2.4244  -2.4235  -2.4171
    -0.8933  -0.8883  -0.8858  -0.8825  -0.8805  -0.8753  -0.7901  -0.7863
    -0.7828  -0.6733  -0.6682  -0.6624  -0.5892  -0.5823  -0.5746   0.1202
     0.1958   0.1993   0.2030   0.2065   0.2098   0.2131   1.0733   1.0794
     1.0845   1.4073   1.4122   1.4163   2.0159   2.0209   2.0221   2.0234
     2.0249   2.0270   2.0785   2.0816   2.0853   2.6310   2.6332   2.6356
     2.7308   2.7318   2.7351   2.7371   2.7403   2.7424   2.7858   2.7911
     2.7942   3.0929   3.0982   3.1009   3.1017   3.1037   3.1063   3.3625
     3.3649   3.3664   3.3751   3.3799   3.3834   3.7239   3.7275   3.7316
     3.7456   3.7497   3.7542   3.8288   3.8328   3.8358   4.0988   4.1048
     4.1065   4.1082   4.1097   4.1147   4.1425   4.1470   4.1507   4.4068
     4.4617   4.4640   4.4661   4.7031   4.7074   4.7112   4.7664   4.7720
     4.7784   4.9249   4.9336   5.2311   5.2367   5.2420   5.7122   5.7221
     6.9270   6.9301   6.9337   7.3659   7.3696   7.3761   7.5967   7.8524
     7.8552   7.8614   7.9820   7.9861   7.9900   8.1408   8.1444   8.1485
     8.1631   8.1650   8.1675   8.3889   8.3936   8.3961   8.3991   8.4006
     8.4022   8.4441

     the Fermi energy is     6.3204 ev

!    total energy              =    -730.88002718 Ry
     Harris-Foulkes estimate   =    -730.88002719 Ry
     estimated scf accuracy    <          3.0E-09 Ry

     The total energy is the sum of the following terms:

     one-electron contribution =     160.47278874 Ry
     hartree contribution      =      35.78738514 Ry
     xc contribution           =    -393.13399431 Ry
     ewald contribution        =    -534.00620675 Ry
     smearing contrib. (-TS)   =      -0.00000000 Ry

     convergence has been achieved in  12 iterations

     Forces acting on atoms (cartesian axes, Ry/au):

     atom    1 type  1   force =    -0.01602867   -0.00002681    0.00002513
     atom    2 type  1   force =     0.00005597    0.00001973    0.00003085
     atom    3 type  1   force =     0.00010381    0.00005886    0.00003773
     atom    4 type  1   force =     0.00002228   -0.00025857    0.00002936
     atom    5 type  1   force =     0.00009216    0.00001001    0.00003812
     atom    6 type  1   force =     0.00001877   -0.00002582    0.00002740
     atom    7 type  1   force =     0.00226049   -0.00395986    0.00273534
     atom    8 type  1   force =     0.00006435    0.00005821    0.00004824
     atom    9 type  1   force =    -0.00058130    0.00017215    0.00015073
     atom   10 type  1   force =    -0.00002616   -0.00024418    0.00003732
     atom   11 type  1   force =    -0.00055547    0.00008103   -0.00008356
     atom   12 type  1   force =    -0.00002760    0.00002753    0.00002078
     atom   13 type  1   force =    -0.00303709   -0.00395054    0.00261852
     atom   14 type  1   force =    -0.00003368    0.00004797    0.00005944
     atom   15 type  1   force =    -0.00056748   -0.00010408   -0.00007703
     atom   16 type  1   force =    -0.00002463   -0.00003816    0.00002078
     atom   17 type  1   force =     0.00020402   -0.00013626    0.00019922
     atom   18 type  1   force =     0.00020666   -0.00009433   -0.00026130
     atom   19 type  1   force =    -0.00000468    0.00004907   -0.00011448
     atom   20 type  1   force =     0.00001428   -0.00026851    0.00004727
     atom   21 type  1   force =     0.00019279    0.00012003   -0.00026159
     atom   22 type  1   force =     0.00021317    0.00008809    0.00020263
     atom   23 type  1   force =    -0.00269258   -0.00394962   -0.00265902
     atom   24 type  1   force =     0.00000653    0.00006858   -0.00012465
     atom   25 type  1   force =     0.00028093    0.00028172   -0.00014647
     atom   26 type  1   force =     0.00026615   -0.00048473   -0.00014285
     atom   27 type  1   force =     0.00025940   -0.00025301    0.00008309
     atom   28 type  1   force =     0.00026840    0.00024918    0.00008361
     atom   29 type  1   force =     0.00255406   -0.00391525   -0.00251979
     atom   30 type  1   force =     0.00008003    0.00013363   -0.00006025
     atom   31 type  1   force =     0.00008071    0.00008587   -0.00002756
     atom   32 type  1   force =     0.00007076   -0.00010454   -0.00001913
     atom   33 type  1   force =    -0.00012867    0.00055700    0.00014010
     atom   34 type  1   force =     0.00014334    0.00055813   -0.00008686
     atom   35 type  1   force =     0.00001734    0.00002422    0.00003449
     atom   36 type  1   force =    -0.00006824    0.00004750    0.00002885
     atom   37 type  1   force =     0.00014146    0.00055544    0.00014156
     atom   38 type  1   force =     0.00005058    0.00056335   -0.00006013
     atom   39 type  1   force =    -0.00000103    0.00003523    0.00004634
     atom   40 type  1   force =     0.00396854    0.00273310    0.00272697
     atom   41 type  1   force =    -0.00008684   -0.00008035   -0.00004637
     atom   42 type  1   force =     0.00403457   -0.00278040   -0.00272767
     atom   43 type  1   force =     0.00010358   -0.00006992   -0.00003577
     atom   44 type  1   force =    -0.00013491   -0.00008196   -0.00004092
     atom   45 type  1   force =     0.00025130   -0.00025755   -0.00013535
     atom   46 type  1   force =    -0.00028191   -0.00028070    0.00007354
     atom   47 type  1   force =    -0.00024991   -0.00026879   -0.00014581
     atom   48 type  1   force =     0.00048719   -0.00026558    0.00008645
     atom   49 type  1   force =    -0.00005707   -0.00009200    0.00005032
     atom   50 type  1   force =     0.00002824    0.00045069    0.00003001
     atom   51 type  1   force =     0.00383907   -0.00250490    0.00250973
     atom   52 type  1   force =    -0.00000910   -0.00006276    0.00003630
     atom   53 type  1   force =     0.00025497    0.01602923    0.00002775
     atom   54 type  1   force =    -0.00001978   -0.00008591    0.00002996
     atom   55 type  1   force =    -0.00005783   -0.00007433    0.00003729
     atom   56 type  1   force =     0.00002937   -0.00002315    0.00002652
     atom   57 type  1   force =     0.00005319   -0.00017953   -0.00026065
     atom   58 type  1   force =     0.00003832   -0.00001374    0.00005062
     atom   59 type  1   force =     0.00036969   -0.00020996    0.00020279
     atom   60 type  1   force =    -0.00001087   -0.00001462   -0.00010694
     atom   61 type  1   force =     0.00372877    0.00227972   -0.00228484
     atom   62 type  1   force =    -0.00001816   -0.00000674   -0.00011310
     atom   63 type  1   force =    -0.00017201   -0.00020065   -0.00027993
     atom   64 type  1   force =     0.00002041   -0.00001747    0.00004683

     Total force =     0.027410     Total SCF correction =     0.000103

     Writing output data file pwscf.save/

     General routines

     Parallel routines

   This run was terminated on:  23: 5:23  14Feb2020

   JOB DONE.