     Program PWSCF v.6.3MaX starts on 13Feb2020 at 22:41: 1

     Waiting for input...
     Reading input from standard input

     Current dimensions of program PWSCF are:
     Max number of different atomic species (ntypx) = 10
     Max number of k-points (npk) =  40000
     Max angular momentum in pseudopotentials (lmaxx) =  3

     Subspace diagonalization in iterative solution of the eigenvalue problem:
     a serial algorithm will be used

     bravais-lattice index     =            0
     lattice parameter (alat)  =      20.6591  a.u.
     unit-cell volume          =    8817.2783 (a.u.)^3
     number of atoms/cell      =           64
     number of atomic types    =            1
     number of electrons       =       256.00
     number of Kohn-Sham states=          154
     kinetic-energy cutoff     =      50.0000  Ry
     charge density cutoff     =     200.0000  Ry
     convergence threshold     =      1.0E-08
     mixing beta               =       0.7000
     number of iterations used =            8  plain     mixing
     Exchange-correlation      = PBE ( 1  4  3  4 0 0)

     celldm(1)=  20.659106  celldm(2)=   0.000000  celldm(3)=   0.000000
     celldm(4)=   0.000000  celldm(5)=   0.000000  celldm(6)=   0.000000

     crystal axes: (cart. coord. in units of alat)
               a(1) = (   1.000000   0.000000   0.000000 )
               a(2) = (   0.000000   1.000000   0.000000 )
               a(3) = (   0.000000   0.000000   1.000000 )

     reciprocal axes: (cart. coord. in units 2 pi/alat)
               b(1) = (  1.000000  0.000000  0.000000 )
               b(2) = (  0.000000  1.000000  0.000000 )
               b(3) = (  0.000000  0.000000  1.000000 )

     PseudoPot. # 1 for Si read from file:
     ~/kedar/softwares/SSSP_precision_pseudos/Si.pbe-n-rrkjus_psl.1.0.0.UPF
     MD5 check sum: Not computed, couldn't open file
     Pseudo is Ultrasoft + core correction, Zval =  4.0
     Generated using "atomic" code by A. Dal Corso v.5.1
     Using radial grid of 1141 points,  6 beta functions with:
                l(1) =   0
                l(2) =   0
                l(3) =   1
                l(4) =   1
                l(5) =   2
                l(6) =   2
     Q(r) pseudized with 0 coefficients

     atomic species   valence    mass     pseudopotential
        Si             4.00    28.08550     Si( 1.00)

     No symmetry found

   Cartesian axes

     site n.     atom                  positions (alat units)
         1           Si  tau(   1) = (   0.4404043   0.4375000   0.4375000  )
         2           Si  tau(   2) = (   0.9375000   0.4375000   0.4375000  )
         3           Si  tau(   3) = (   0.4375000   0.9375000   0.4375000  )
         4           Si  tau(   4) = (   0.9375000   0.9375000   0.4375000  )
         5           Si  tau(   5) = (   0.4375000   0.4375000   0.9375000  )
         6           Si  tau(   6) = (   0.9375000   0.4375000   0.9375000  )
         7           Si  tau(   7) = (   0.4375000   0.9375000   0.9375000  )
         8           Si  tau(   8) = (   0.9375000   0.9375000   0.9375000  )
         9           Si  tau(   9) = (   0.4375000   0.1875000   0.1875000  )
        10           Si  tau(  10) = (   0.9375000   0.1904043   0.1875000  )
        11           Si  tau(  11) = (   0.4375000   0.6875000   0.1875000  )
        12           Si  tau(  12) = (   0.9375000   0.6875000   0.1875000  )
        13           Si  tau(  13) = (   0.4375000   0.1875000   0.6875000  )
        14           Si  tau(  14) = (   0.9375000   0.1875000   0.6875000  )
        15           Si  tau(  15) = (   0.4375000   0.6875000   0.6875000  )
        16           Si  tau(  16) = (   0.9375000   0.6875000   0.6875000  )
        17           Si  tau(  17) = (   0.1875000   0.4375000   0.1875000  )
        18           Si  tau(  18) = (   0.6875000   0.4375000   0.1875000  )
        19           Si  tau(  19) = (   0.1875000   0.9375000   0.1875000  )
        20           Si  tau(  20) = (   0.6875000   0.9375000   0.1875000  )
        21           Si  tau(  21) = (   0.1875000   0.4375000   0.6875000  )
        22           Si  tau(  22) = (   0.6875000   0.4375000   0.6875000  )
        23           Si  tau(  23) = (   0.1875000   0.9375000   0.6875000  )
        24           Si  tau(  24) = (   0.6875000   0.9375000   0.6875000  )
        25           Si  tau(  25) = (   0.1875000   0.1875000   0.4375000  )
        26           Si  tau(  26) = (   0.6875000   0.1875000   0.4375000  )
        27           Si  tau(  27) = (   0.1875000   0.6875000   0.4375000  )
        28           Si  tau(  28) = (   0.6875000   0.6875000   0.4375000  )
        29           Si  tau(  29) = (   0.1875000   0.1875000   0.9375000  )
        30           Si  tau(  30) = (   0.6875000   0.1875000   0.9375000  )
        31           Si  tau(  31) = (   0.1875000   0.6875000   0.9375000  )
        32           Si  tau(  32) = (   0.6875000   0.6875000   0.9375000  )
        33           Si  tau(  33) = (   0.0625000   0.0625000   0.0625000  )
        34           Si  tau(  34) = (   0.5625000   0.0625000   0.0625000  )
        35           Si  tau(  35) = (   0.0625000   0.5625000   0.0625000  )
        36           Si  tau(  36) = (   0.5625000   0.5625000   0.0625000  )
        37           Si  tau(  37) = (   0.0625000   0.0625000   0.5625000  )
        38           Si  tau(  38) = (   0.5625000   0.0625000   0.5625000  )
        39           Si  tau(  39) = (   0.0625000   0.5625000   0.5625000  )
        40           Si  tau(  40) = (   0.5625000   0.5625000   0.5625000  )
        41           Si  tau(  41) = (   0.0625000   0.3125000   0.3125000  )
        42           Si  tau(  42) = (   0.5625000   0.3125000   0.3125000  )
        43           Si  tau(  43) = (   0.0625000   0.8125000   0.3125000  )
        44           Si  tau(  44) = (   0.5625000   0.8125000   0.3125000  )
        45           Si  tau(  45) = (   0.0625000   0.3125000   0.8125000  )
        46           Si  tau(  46) = (   0.5625000   0.3125000   0.8125000  )
        47           Si  tau(  47) = (   0.0625000   0.8125000   0.8125000  )
        48           Si  tau(  48) = (   0.5625000   0.8125000   0.8125000  )
        49           Si  tau(  49) = (   0.3125000   0.0625000   0.3125000  )
        50           Si  tau(  50) = (   0.8125000   0.0625000   0.3125000  )
        51           Si  tau(  51) = (   0.3125000   0.5625000   0.3125000  )
        52           Si  tau(  52) = (   0.8125000   0.5625000   0.3125000  )
        53           Si  tau(  53) = (   0.3125000   0.0625000   0.8125000  )
        54           Si  tau(  54) = (   0.8125000   0.0625000   0.8125000  )
        55           Si  tau(  55) = (   0.3125000   0.5625000   0.8125000  )
        56           Si  tau(  56) = (   0.8125000   0.5625000   0.8125000  )
        57           Si  tau(  57) = (   0.3125000   0.3125000   0.0625000  )
        58           Si  tau(  58) = (   0.8125000   0.3125000   0.0625000  )
        59           Si  tau(  59) = (   0.3125000   0.8125000   0.0625000  )
        60           Si  tau(  60) = (   0.8125000   0.8125000   0.0625000  )
        61           Si  tau(  61) = (   0.3125000   0.3125000   0.5625000  )
        62           Si  tau(  62) = (   0.8125000   0.3125000   0.5625000  )
        63           Si  tau(  63) = (   0.3125000   0.8125000   0.5625000  )
        64           Si  tau(  64) = (   0.8125000   0.8125000   0.5625000  )

     number of k points=     4  gaussian smearing, width (Ry)=  0.0100
                       cart. coord. in units 2pi/alat
        k(    1) = (   0.2500000   0.2500000   0.2500000), wk =   0.5000000
        k(    2) = (  -0.2500000  -0.2500000   0.2500000), wk =   0.5000000
        k(    3) = (  -0.2500000   0.2500000  -0.2500000), wk =   0.5000000
        k(    4) = (   0.2500000  -0.2500000  -0.2500000), wk =   0.5000000

     Check: negative/imaginary core charge=   -0.000001    0.000000

     Initial potential from superposition of free atoms

     starting charge  255.96421, renormalised to  256.00000
     Starting wfcs are  256 randomized atomic wfcs

     Self-consistent Calculation

     iteration #  1     ecut=    50.00 Ry     beta= 0.70
     Davidson diagonalization with overlap
     ethr =  1.00E-02,  avg # of iterations =  3.0

     Threshold (ethr) on eigenvalues was too large:
     Diagonalizing with lowered threshold

     Davidson diagonalization with overlap
     ethr =  6.78E-04,  avg # of iterations =  2.0

     total energy              =    -730.80278747 Ry
     Harris-Foulkes estimate   =    -731.20886296 Ry
     estimated scf accuracy    <       1.72028703 Ry

[...]

     total energy              =    -730.88002613 Ry
     Harris-Foulkes estimate   =    -730.88002614 Ry
     estimated scf accuracy    <       0.00000001 Ry

     iteration # 12     ecut=    50.00 Ry     beta= 0.70
     Davidson diagonalization with overlap
     ethr =  5.35E-12,  avg # of iterations =  3.0

     End of self-consistent calculation

          k = 0.2500 0.2500 0.2500 ( 52563 PWs)   bands (ev):

    -5.6274  -5.1023  -5.0997  -5.0964  -4.6030  -4.6004  -4.5972  -4.1659
    -4.0701  -4.0673  -4.0635  -3.6614  -3.6554  -3.6508  -3.6499  -3.6485
    -3.6456  -3.4646  -3.4589  -3.4566  -2.9656  -2.9624  -2.9567  -2.6007
    -2.5927  -2.5909  -2.4341  -2.4305  -2.4255  -2.4242  -2.4225  -2.4211
    -0.8917  -0.8876  -0.8835  -0.8817  -0.8803  -0.8776  -0.7913  -0.7837
    -0.7815  -0.6701  -0.6673  -0.6615  -0.5939  -0.5842  -0.5808   0.1164
     0.1972   0.2032   0.2047   0.2075   0.2098   0.2142   1.0694   1.0788
     1.0816   1.4084   1.4125   1.4152   2.0183   2.0207   2.0219   2.0230
     2.0251   2.0264   2.0802   2.0826   2.0854   2.6285   2.6320   2.6334
     2.7319   2.7351   2.7367   2.7385   2.7408   2.7429   2.7895   2.7921
     2.7962   3.0952   3.0986   3.1001   3.1011   3.1017   3.1058   3.3642
     3.3664   3.3671   3.3776   3.3806   3.3837   3.7226   3.7256   3.7287
     3.7421   3.7483   3.7500   3.8316   3.8330   3.8362   4.0956   4.1010
     4.1055   4.1074   4.1078   4.1092   4.1457   4.1473   4.1508   4.4025
     4.4641   4.4669   4.4679   4.7070   4.7085   4.7125   4.7603   4.7701
     4.7716   4.9280   4.9330   5.2361   5.2386   5.2436   5.7167   5.7224
     6.9286   6.9326   6.9346   7.3671   7.3722   7.3746   7.5982   7.8541
     7.8589   7.8608   7.9814   7.9832   7.9893   8.1425   8.1442   8.1493
     8.1628   8.1664   8.1678   8.3890   8.3916   8.3969   8.3977   8.3995
     8.4463   8.6547

          k =-0.2500-0.2500 0.2500 ( 52563 PWs)   bands (ev):

[...]

          k =-0.2500 0.2500-0.2500 ( 52563 PWs)   bands (ev):

[...]

          k = 0.2500-0.2500-0.2500 ( 52563 PWs)   bands (ev):

    -5.6275  -5.1027  -5.0985  -5.0968  -4.6036  -4.5994  -4.5976  -4.1671
    -4.0711  -4.0665  -4.0646  -3.6585  -3.6540  -3.6510  -3.6502  -3.6492
    -3.6456  -3.4635  -3.4594  -3.4550  -2.9686  -2.9624  -2.9593  -2.5982
    -2.5943  -2.5907  -2.4336  -2.4289  -2.4257  -2.4252  -2.4237  -2.4188
    -0.8942  -0.8877  -0.8841  -0.8834  -0.8811  -0.8750  -0.7897  -0.7863
    -0.7830  -0.6732  -0.6681  -0.6627  -0.5873  -0.5811  -0.5777   0.1202
     0.1953   0.1999   0.2049   0.2061   0.2086   0.2127   1.0735   1.0797
     1.0840   1.4073   1.4122   1.4163   2.0179   2.0200   2.0221   2.0234
     2.0240   2.0272   2.0783   2.0819   2.0848   2.6310   2.6331   2.6357
     2.7308   2.7326   2.7352   2.7380   2.7399   2.7417   2.7855   2.7904
     2.7947   3.0942   3.0982   3.1011   3.1014   3.1038   3.1049   3.3615
     3.3656   3.3667   3.3751   3.3799   3.3835   3.7248   3.7277   3.7303
     3.7457   3.7505   3.7535   3.8287   3.8330   3.8357   4.0994   4.1055
     4.1069   4.1080   4.1097   4.1135   4.1423   4.1472   4.1506   4.4067
     4.4603   4.4643   4.4670   4.7030   4.7076   4.7112   4.7676   4.7723
     4.7771   4.9248   4.9337   5.2309   5.2370   5.2418   5.7122   5.7221
     6.9264   6.9307   6.9336   7.3651   7.3708   7.3757   7.5967   7.8514
     7.8564   7.8611   7.9820   7.9861   7.9900   8.1409   8.1446   8.1486
     8.1611   8.1659   8.1680   8.3898   8.3945   8.3969   8.3977   8.3997
     8.4022   8.4439

     the Fermi energy is     6.3206 ev

!    total energy              =    -730.88002613 Ry
     Harris-Foulkes estimate   =    -730.88002614 Ry
     estimated scf accuracy    <          4.3E-09 Ry

     The total energy is the sum of the following terms:

     one-electron contribution =     160.47283047 Ry
     hartree contribution      =      35.78736881 Ry
     xc contribution           =    -393.13399316 Ry
     ewald contribution        =    -534.00623225 Ry
     smearing contrib. (-TS)   =      -0.00000000 Ry

     convergence has been achieved in  12 iterations

     Forces acting on atoms (cartesian axes, Ry/au):

     atom    1 type  1   force =    -0.01604551    0.00004335   -0.00007528
     atom    2 type  1   force =     0.00013955    0.00023810    0.00022968
     atom    3 type  1   force =     0.00006642    0.00004362    0.00007740
     atom    4 type  1   force =     0.00010207    0.00023073   -0.00022524
     atom    5 type  1   force =     0.00004512    0.00004392    0.00007531
     atom    6 type  1   force =    -0.00012051    0.00023718   -0.00023034
     atom    7 type  1   force =    -0.00048575    0.00004448   -0.00007753
     atom    8 type  1   force =    -0.00008426    0.00023050    0.00022427
     atom    9 type  1   force =    -0.00053053    0.00017026    0.00011494
     atom   10 type  1   force =     0.00000288   -0.01604539    0.00000879
     atom   11 type  1   force =    -0.00052660    0.00010265   -0.00010972
     atom   12 type  1   force =     0.00000303    0.00003483   -0.00000893
     atom   13 type  1   force =    -0.00052558   -0.00058575    0.00011049
     atom   14 type  1   force =     0.00000193    0.00004563    0.00000983
     atom   15 type  1   force =    -0.00052903   -0.00008888   -0.00011514
     atom   16 type  1   force =     0.00000028   -0.00001628   -0.00000860
     atom   17 type  1   force =     0.00046046    0.00012697    0.00033782
     atom   18 type  1   force =     0.00000672    0.00012337   -0.00034465
     atom   19 type  1   force =    -0.00018087    0.00022084    0.00003345
     atom   20 type  1   force =     0.00026929    0.00022115   -0.00003256
     atom   21 type  1   force =     0.00015618    0.00015330   -0.00021390
     atom   22 type  1   force =     0.00031290    0.00015850    0.00022118
     atom   23 type  1   force =     0.00012098    0.00005433    0.00008641
     atom   24 type  1   force =    -0.00003336    0.00005363   -0.00008697
     atom   25 type  1   force =     0.00011694   -0.00030573   -0.00022465
     atom   26 type  1   force =     0.00012621   -0.00075746   -0.00000336
     atom   27 type  1   force =     0.00022217   -0.00022308    0.00009978
     atom   28 type  1   force =     0.00022755    0.00023404    0.00012445
     atom   29 type  1   force =     0.00015429   -0.00060051   -0.00011928
     atom   30 type  1   force =     0.00015832   -0.00045380    0.00010401
     atom   31 type  1   force =     0.00005336    0.00007842    0.00000131
     atom   32 type  1   force =     0.00005331   -0.00007533    0.00001806
     atom   33 type  1   force =    -0.00252986    0.00387084    0.00254170
     atom   34 type  1   force =     0.00022133   -0.00002811    0.00007827
     atom   35 type  1   force =    -0.00000868    0.00001676    0.00006146
     atom   36 type  1   force =    -0.00008583    0.00007736    0.00006700
     atom   37 type  1   force =    -0.00002385   -0.00003162    0.00006393
     atom   38 type  1   force =    -0.00008583    0.00029231    0.00007621
     atom   39 type  1   force =    -0.00003938    0.00006518    0.00006347
     atom   40 type  1   force =     0.00392683    0.00271722    0.00276727
     atom   41 type  1   force =     0.00272682    0.00392164    0.00269779
     atom   42 type  1   force =     0.00399493   -0.00279522   -0.00268721
     atom   43 type  1   force =     0.00006356   -0.00003565    0.00000926
     atom   44 type  1   force =    -0.00003284   -0.00001072   -0.00002026
     atom   45 type  1   force =     0.00007692   -0.00008522    0.00001358
     atom   46 type  1   force =    -0.00003091    0.00020934   -0.00001001
     atom   47 type  1   force =     0.00000686   -0.00000367   -0.00000494
     atom   48 type  1   force =     0.00028870   -0.00004822    0.00000148
     atom   49 type  1   force =    -0.00001989   -0.00009283    0.00000007
     atom   50 type  1   force =     0.00253814    0.00381047   -0.00247980
     atom   51 type  1   force =     0.00386669   -0.00248098    0.00248061
     atom   52 type  1   force =     0.00002717   -0.00004583    0.00000019
     atom   53 type  1   force =     0.00028354    0.00022748   -0.00000040
     atom   54 type  1   force =     0.00003056   -0.00008654   -0.00000676
     atom   55 type  1   force =    -0.00002610   -0.00007226    0.00000621
     atom   56 type  1   force =     0.00005760   -0.00000098   -0.00000010
     atom   57 type  1   force =    -0.00009568   -0.00000772   -0.00008647
     atom   58 type  1   force =    -0.00270739    0.00398785   -0.00276425
     atom   59 type  1   force =     0.00022924    0.00005387   -0.00005477
     atom   60 type  1   force =    -0.00005638    0.00002035   -0.00006702
     atom   61 type  1   force =     0.00381162    0.00276947   -0.00253705
     atom   62 type  1   force =    -0.00005968   -0.00002259   -0.00007335
     atom   63 type  1   force =    -0.00008606    0.00001665   -0.00008180
     atom   64 type  1   force =    -0.00000010    0.00005380   -0.00005532

     Total force =     0.027454     Total SCF correction =     0.000119

     Writing output data file pwscf.save/

     General routines

     Parallel routines

      12h

   This run was terminated on:  23:53: 7  13Feb2020

   JOB DONE.