     Program PWSCF v.6.3MaX starts on 14Feb2020 at 23:21:23

     R & G space division:  proc/nbgrp/npool/nimage =       2
     Waiting for input...
     Reading input from standard input

     Current dimensions of program PWSCF are:
     Max number of different atomic species (ntypx) = 10
     Max number of k-points (npk) =  40000
     Max angular momentum in pseudopotentials (lmaxx) =  3

     Subspace diagonalization in iterative solution of the eigenvalue problem:
     a serial algorithm will be used

     bravais-lattice index     =            0
     lattice parameter (alat)  =      20.6591  a.u.
     unit-cell volume          =    8817.2783 (a.u.)^3
     number of atoms/cell      =           64
     number of atomic types    =            1
     number of electrons       =       256.00
     number of Kohn-Sham states=          154
     kinetic-energy cutoff     =      50.0000  Ry
     charge density cutoff     =     200.0000  Ry
     convergence threshold     =      1.0E-08
     mixing beta               =       0.7000
     number of iterations used =            8  plain     mixing
     Exchange-correlation      = PBE ( 1  4  3  4 0 0)

     celldm(1)=  20.659106  celldm(2)=   0.000000  celldm(3)=   0.000000
     celldm(4)=   0.000000  celldm(5)=   0.000000  celldm(6)=   0.000000

     crystal axes: (cart. coord. in units of alat)
               a(1) = (   1.000000   0.000000   0.000000 )
               a(2) = (   0.000000   1.000000   0.000000 )
               a(3) = (   0.000000   0.000000   1.000000 )

     reciprocal axes: (cart. coord. in units 2 pi/alat)
               b(1) = (  1.000000  0.000000  0.000000 )
               b(2) = (  0.000000  1.000000  0.000000 )
               b(3) = (  0.000000  0.000000  1.000000 )

     PseudoPot. # 1 for Si read from file:
     ~/kedar/softwares/SSSP_precision_pseudos/Si.pbe-n-rrkjus_psl.1.0.0.UPF
     MD5 check sum: Not computed, couldn't open file
     Pseudo is Ultrasoft + core correction, Zval =  4.0
     Generated using "atomic" code by A. Dal Corso v.5.1
     Using radial grid of 1141 points,  6 beta functions with:
                l(1) =   0
                l(2) =   0
                l(3) =   1
                l(4) =   1
                l(5) =   2
                l(6) =   2
     Q(r) pseudized with 0 coefficients

     atomic species   valence    mass     pseudopotential
        Si             4.00    28.08550     Si( 1.00)

     No symmetry found

   Cartesian axes

     site n.     atom                  positions (alat units)
         1           Si  tau(   1) = (   0.4404043   0.4375000   0.4375000  )
         2           Si  tau(   2) = (   0.9375000   0.4375000   0.4375000  )
         3           Si  tau(   3) = (   0.4375000   0.9375000   0.4375000  )
         4           Si  tau(   4) = (   0.9375000   0.9375000   0.4375000  )
         5           Si  tau(   5) = (   0.4375000   0.4375000   0.9375000  )
         6           Si  tau(   6) = (   0.9375000   0.4375000   0.9375000  )
         7           Si  tau(   7) = (   0.4375000   0.9375000   0.9375000  )
         8           Si  tau(   8) = (   0.9375000   0.9375000   0.9375000  )
         9           Si  tau(   9) = (   0.4375000   0.1875000   0.1875000  )
        10           Si  tau(  10) = (   0.9375000   0.1875000   0.1875000  )
        11           Si  tau(  11) = (   0.4375000   0.6875000   0.1875000  )
        12           Si  tau(  12) = (   0.9375000   0.6875000   0.1875000  )
        13           Si  tau(  13) = (   0.4375000   0.1875000   0.6875000  )
        14           Si  tau(  14) = (   0.9375000   0.1875000   0.6875000  )
        15           Si  tau(  15) = (   0.4375000   0.6875000   0.6875000  )
        16           Si  tau(  16) = (   0.9375000   0.6875000   0.6875000  )
        17           Si  tau(  17) = (   0.1875000   0.4375000   0.1875000  )
        18           Si  tau(  18) = (   0.6875000   0.4375000   0.1875000  )
        19           Si  tau(  19) = (   0.1875000   0.9375000   0.1875000  )
        20           Si  tau(  20) = (   0.6875000   0.9375000   0.1875000  )
        21           Si  tau(  21) = (   0.1875000   0.4375000   0.6875000  )
        22           Si  tau(  22) = (   0.6875000   0.4375000   0.6875000  )
        23           Si  tau(  23) = (   0.1875000   0.9375000   0.6875000  )
        24           Si  tau(  24) = (   0.6875000   0.9375000   0.6875000  )
        25           Si  tau(  25) = (   0.1875000   0.1875000   0.4375000  )
        26           Si  tau(  26) = (   0.6875000   0.1875000   0.4375000  )
        27           Si  tau(  27) = (   0.1875000   0.6875000   0.4375000  )
        28           Si  tau(  28) = (   0.6875000   0.6875000   0.4375000  )
        29           Si  tau(  29) = (   0.1875000   0.1875000   0.9375000  )
        30           Si  tau(  30) = (   0.6875000   0.1875000   0.9375000  )
        31           Si  tau(  31) = (   0.1875000   0.6875000   0.9375000  )
        32           Si  tau(  32) = (   0.6875000   0.6875000   0.9375000  )
        33           Si  tau(  33) = (   0.0625000   0.0625000   0.0625000  )
        34           Si  tau(  34) = (   0.5625000   0.0625000   0.0625000  )
        35           Si  tau(  35) = (   0.0625000   0.5625000   0.0625000  )
        36           Si  tau(  36) = (   0.5625000   0.5625000   0.0625000  )
        37           Si  tau(  37) = (   0.0625000   0.0625000   0.5625000  )
        38           Si  tau(  38) = (   0.5625000   0.0625000   0.5625000  )
        39           Si  tau(  39) = (   0.0625000   0.5625000   0.5625000  )
        40           Si  tau(  40) = (   0.5625000   0.5625000   0.5625000  )
        41           Si  tau(  41) = (   0.0625000   0.3125000   0.3125000  )
        42           Si  tau(  42) = (   0.5625000   0.3125000   0.3125000  )
        43           Si  tau(  43) = (   0.0625000   0.8125000   0.3125000  )
        44           Si  tau(  44) = (   0.5625000   0.8125000   0.3125000  )
        45           Si  tau(  45) = (   0.0625000   0.3125000   0.8125000  )
        46           Si  tau(  46) = (   0.5625000   0.3125000   0.8125000  )
        47           Si  tau(  47) = (   0.0625000   0.8125000   0.8125000  )
        48           Si  tau(  48) = (   0.5625000   0.8125000   0.8125000  )
        49           Si  tau(  49) = (   0.3125000   0.0625000   0.3125000  )
        50           Si  tau(  50) = (   0.8125000   0.0625000   0.3125000  )
        51           Si  tau(  51) = (   0.3125000   0.5625000   0.3125000  )
        52           Si  tau(  52) = (   0.8125000   0.5625000   0.3125000  )
        53           Si  tau(  53) = (   0.3125000   0.0625000   0.8125000  )
        54           Si  tau(  54) = (   0.8125000   0.0595957   0.8125000  )
        55           Si  tau(  55) = (   0.3125000   0.5625000   0.8125000  )
        56           Si  tau(  56) = (   0.8125000   0.5625000   0.8125000  )
        57           Si  tau(  57) = (   0.3125000   0.3125000   0.0625000  )
        58           Si  tau(  58) = (   0.8125000   0.3125000   0.0625000  )
        59           Si  tau(  59) = (   0.3125000   0.8125000   0.0625000  )
        60           Si  tau(  60) = (   0.8125000   0.8125000   0.0625000  )
        61           Si  tau(  61) = (   0.3125000   0.3125000   0.5625000  )
        62           Si  tau(  62) = (   0.8125000   0.3125000   0.5625000  )
        63           Si  tau(  63) = (   0.3125000   0.8125000   0.5625000  )
        64           Si  tau(  64) = (   0.8125000   0.8125000   0.5625000  )

     number of k points=     4  gaussian smearing, width (Ry)=  0.0100
                       cart. coord. in units 2pi/alat
        k(    1) = (   0.2500000   0.2500000   0.2500000), wk =   0.5000000
        k(    2) = (  -0.2500000  -0.2500000   0.2500000), wk =   0.5000000
        k(    3) = (  -0.2500000   0.2500000  -0.2500000), wk =   0.5000000
        k(    4) = (   0.2500000  -0.2500000  -0.2500000), wk =   0.5000000

     Check: negative/imaginary core charge=   -0.000001    0.000000

     Initial potential from superposition of free atoms

     starting charge  255.96421, renormalised to  256.00000
     Starting wfcs are  256 randomized atomic wfcs

     Self-consistent Calculation

     iteration #  1     ecut=    50.00 Ry     beta= 0.70
     Davidson diagonalization with overlap
     ethr =  1.00E-02,  avg # of iterations =  3.0

     Threshold (ethr) on eigenvalues was too large:
     Diagonalizing with lowered threshold

     Davidson diagonalization with overlap
     ethr =  6.78E-04,  avg # of iterations =  2.0

     total energy              =    -730.80270289 Ry
     Harris-Foulkes estimate   =    -731.20873798 Ry
     estimated scf accuracy    <       1.72029233 Ry

[...]

     total energy              =    -730.88002744 Ry
     Harris-Foulkes estimate   =    -730.88002745 Ry
     estimated scf accuracy    <       0.00000001 Ry

     iteration # 12     ecut=    50.00 Ry     beta= 0.70
     Davidson diagonalization with overlap
     ethr =  4.03E-12,  avg # of iterations =  3.0

     End of self-consistent calculation

          k = 0.2500 0.2500 0.2500 ( 52563 PWs)   bands (ev):

    -5.6274  -5.1039  -5.0977  -5.0967  -4.6046  -4.5985  -4.5975  -4.1660
    -4.0714  -4.0655  -4.0640  -3.6618  -3.6526  -3.6510  -3.6509  -3.6484
    -3.6466  -3.4642  -3.4593  -3.4566  -2.9659  -2.9610  -2.9579  -2.5987
    -2.5946  -2.5911  -2.4351  -2.4270  -2.4262  -2.4258  -2.4225  -2.4211
    -0.8907  -0.8866  -0.8841  -0.8836  -0.8798  -0.8780  -0.7885  -0.7857
    -0.7820  -0.6691  -0.6679  -0.6619  -0.5947  -0.5834  -0.5808   0.1164
     0.2001   0.2031   0.2048   0.2052   0.2094   0.2140   1.0703   1.0780
     1.0815   1.4091   1.4119   1.4150   2.0181   2.0200   2.0216   2.0236
     2.0251   2.0268   2.0805   2.0825   2.0854   2.6297   2.6309   2.6333
     2.7328   2.7340   2.7363   2.7380   2.7408   2.7438   2.7899   2.7923
     2.7956   3.0944   3.0973   3.1005   3.1017   3.1033   3.1055   3.3642
     3.3662   3.3673   3.3778   3.3805   3.3837   3.7209   3.7272   3.7289
     3.7432   3.7470   3.7500   3.8313   3.8334   3.8361   4.0955   4.1001
     4.1063   4.1075   4.1078   4.1093   4.1453   4.1478   4.1508   4.4026
     4.4641   4.4669   4.4679   4.7067   4.7090   4.7123   4.7608   4.7696
     4.7716   4.9279   4.9330   5.2358   5.2390   5.2433   5.7167   5.7224
     6.9286   6.9327   6.9346   7.3676   7.3724   7.3740   7.5982   7.8547
     7.8588   7.8603   7.9815   7.9838   7.9883   8.1430   8.1451   8.1478
     8.1629   8.1665   8.1680   8.3885   8.3896   8.3959   8.3969   8.3978
     8.4008   8.4469

          k =-0.2500-0.2500 0.2500 ( 52563 PWs)   bands (ev):

[...]

          k =-0.2500 0.2500-0.2500 ( 52563 PWs)   bands (ev):

[...]

          k = 0.2500-0.2500-0.2500 ( 52563 PWs)   bands (ev):

    -5.6275  -5.1029  -5.0993  -5.0958  -4.6039  -4.6003  -4.5966  -4.1670
    -4.0706  -4.0674  -4.0641  -3.6610  -3.6535  -3.6513  -3.6513  -3.6493
    -3.6421  -3.4636  -3.4594  -3.4551  -2.9667  -2.9635  -2.9602  -2.5982
    -2.5943  -2.5907  -2.4351  -2.4278  -2.4261  -2.4261  -2.4240  -2.4167
    -0.8930  -0.8855  -0.8840  -0.8840  -0.8833  -0.8761  -0.7897  -0.7864
    -0.7827  -0.6732  -0.6682  -0.6626  -0.5879  -0.5820  -0.5761   0.1201
     0.1957   0.2041   0.2045   0.2046   0.2052   0.2135   1.0745   1.0791
     1.0837   1.4080   1.4120   1.4158   2.0192   2.0201   2.0211   2.0238
     2.0248   2.0257   2.0790   2.0815   2.0840   2.6310   2.6332   2.6356
     2.7305   2.7337   2.7361   2.7368   2.7389   2.7422   2.7872   2.7902
     2.7933   3.0940   3.0996   3.1003   3.1010   3.1017   3.1072   3.3628
     3.3648   3.3664   3.3753   3.3796   3.3831   3.7234   3.7277   3.7318
     3.7455   3.7498   3.7544   3.8292   3.8324   3.8357   4.0987   4.1051
     4.1069   4.1074   4.1091   4.1155   4.1431   4.1464   4.1506   4.4065
     4.4617   4.4643   4.4661   4.7037   4.7073   4.7107   4.7681   4.7719
     4.7768   4.9249   4.9337   5.2321   5.2364   5.2413   5.7122   5.7221
     6.9270   6.9300   6.9337   7.3671   7.3705   7.3740   7.5967   7.8530
     7.8560   7.8597   7.9819   7.9862   7.9899   8.1440   8.1450   8.1460
     8.1629   8.1647   8.1671   8.3882   8.3939   8.3967   8.3970   8.3999
     8.4046   8.4446

     the Fermi energy is     6.3206 ev

!    total energy              =    -730.88002744 Ry
     Harris-Foulkes estimate   =    -730.88002744 Ry
     estimated scf accuracy    <          1.3E-09 Ry

     The total energy is the sum of the following terms:

     one-electron contribution =     160.47287326 Ry
     hartree contribution      =      35.78734525 Ry
     xc contribution           =    -393.13399392 Ry
     ewald contribution        =    -534.00625204 Ry
     smearing contrib. (-TS)   =      -0.00000000 Ry

     convergence has been achieved in  12 iterations

     Forces acting on atoms (cartesian axes, Ry/au):

     atom    1 type  1   force =    -0.01602407    0.00001966    0.00003138
     atom    2 type  1   force =     0.00005100   -0.00002663    0.00002487
     atom    3 type  1   force =     0.00008401   -0.00025833    0.00002890
     atom    4 type  1   force =     0.00004205    0.00005922    0.00003821
     atom    5 type  1   force =     0.00007966   -0.00002604    0.00002634
     atom    6 type  1   force =     0.00003177    0.00001044    0.00003765
     atom    7 type  1   force =    -0.00043739    0.00005876    0.00004855
     atom    8 type  1   force =     0.00276137   -0.00395895    0.00273585
     atom    9 type  1   force =    -0.00055861   -0.00013960    0.00014326
     atom   10 type  1   force =    -0.00004829    0.00006651    0.00004577
     atom   11 type  1   force =    -0.00055644    0.00012960   -0.00008026
     atom   12 type  1   force =    -0.00002681   -0.00001967    0.00001750
     atom   13 type  1   force =    -0.00056248   -0.00005306    0.00016097
     atom   14 type  1   force =    -0.00250737   -0.00384934    0.00251903
     atom   15 type  1   force =    -0.00055624   -0.00014322   -0.00008491
     atom   16 type  1   force =    -0.00003613    0.00000124    0.00002831
     atom   17 type  1   force =     0.00020008   -0.00009011    0.00019292
     atom   18 type  1   force =     0.00021064   -0.00014082   -0.00025445
     atom   19 type  1   force =     0.00001556   -0.00026752   -0.00010485
     atom   20 type  1   force =    -0.00000507    0.00004859    0.00003807
     atom   21 type  1   force =     0.00020613    0.00008257   -0.00025075
     atom   22 type  1   force =     0.00019956    0.00012516    0.00019155
     atom   23 type  1   force =     0.00000628    0.00006861    0.00002708
     atom   24 type  1   force =    -0.00269184   -0.00394937   -0.00281166
     atom   25 type  1   force =     0.00025841   -0.00003067   -0.00013760
     atom   26 type  1   force =     0.00028807   -0.00017295   -0.00015036
     atom   27 type  1   force =     0.00026110   -0.00020475    0.00007922
     atom   28 type  1   force =     0.00026694    0.00020135    0.00008823
     atom   29 type  1   force =     0.00008053   -0.00001874   -0.00005987
     atom   30 type  1   force =     0.00255380   -0.00376505   -0.00252008
     atom   31 type  1   force =     0.00007082    0.00004730   -0.00001944
     atom   32 type  1   force =     0.00008083   -0.00006506   -0.00002804
     atom   33 type  1   force =    -0.00013401    0.00056164   -0.00008301
     atom   34 type  1   force =     0.00014916    0.00055315    0.00013651
     atom   35 type  1   force =     0.00001800    0.00002508    0.00001566
     atom   36 type  1   force =    -0.00006878    0.00004720    0.00004705
     atom   37 type  1   force =     0.00013629    0.00055122   -0.00008277
     atom   38 type  1   force =     0.00005591    0.00056781    0.00016381
     atom   39 type  1   force =    -0.00000098    0.00003445    0.00002740
     atom   40 type  1   force =     0.00396821    0.00273454    0.00274623
     atom   41 type  1   force =     0.00006625   -0.00008146   -0.00002806
     atom   42 type  1   force =     0.00388113   -0.00278042   -0.00274515
     atom   43 type  1   force =    -0.00004920   -0.00006927   -0.00001764
     atom   44 type  1   force =     0.00001780   -0.00008151   -0.00005838
     atom   45 type  1   force =    -0.00019643   -0.00025764    0.00008509
     atom   46 type  1   force =     0.00016446   -0.00028027   -0.00014890
     atom   47 type  1   force =     0.00020883   -0.00026849    0.00008355
     atom   48 type  1   force =     0.00002944   -0.00026551   -0.00014278
     atom   49 type  1   force =    -0.00005753    0.00044001    0.00005070
     atom   50 type  1   force =     0.00002892   -0.00008230    0.00003012
     atom   51 type  1   force =     0.00383883   -0.00253650    0.00250967
     atom   52 type  1   force =    -0.00000933   -0.00003024    0.00003691
     atom   53 type  1   force =     0.00025582   -0.00008274    0.00002723
     atom   54 type  1   force =    -0.00002008    0.01602255    0.00002974
     atom   55 type  1   force =    -0.00005664   -0.00004449    0.00003724
     atom   56 type  1   force =     0.00002876   -0.00005202    0.00002615
     atom   57 type  1   force =    -0.00004856    0.00000699    0.00003991
     atom   58 type  1   force =     0.00013984   -0.00020168   -0.00025046
     atom   59 type  1   force =     0.00026438   -0.00001687   -0.00010375
     atom   60 type  1   force =     0.00009414   -0.00020692    0.00019876
     atom   61 type  1   force =     0.00382989    0.00246602   -0.00258651
     atom   62 type  1   force =    -0.00012041   -0.00019415    0.00018698
     atom   63 type  1   force =    -0.00006588   -0.00000701    0.00002565
     atom   64 type  1   force =    -0.00008608   -0.00021025   -0.00025833

     Total force =     0.027402     Total SCF correction =     0.000065

     Writing output data file pwscf.save/

     General routines

     Parallel routines

   This run was terminated on:   0: 3: 4  15Feb2020

   JOB DONE.