     Program PWSCF v.6.3MaX starts on 14Feb2020 at 21: 5:31

     R & G space division:  proc/nbgrp/npool/nimage =       2
     Waiting for input...
     Reading input from standard input

     Current dimensions of program PWSCF are:
     Max number of different atomic species (ntypx) = 10
     Max number of k-points (npk) =  40000
     Max angular momentum in pseudopotentials (lmaxx) =  3

     Subspace diagonalization in iterative solution of the eigenvalue problem:
     a serial algorithm will be used

     bravais-lattice index     =            0
     lattice parameter (alat)  =      20.6591  a.u.
     unit-cell volume          =    8817.2783 (a.u.)^3
     number of atoms/cell      =           64
     number of atomic types    =            1
     number of electrons       =       256.00
     number of Kohn-Sham states=          154
     kinetic-energy cutoff     =      50.0000  Ry
     charge density cutoff     =     200.0000  Ry
     convergence threshold     =      1.0E-08
     mixing beta               =       0.7000
     number of iterations used =            8  plain     mixing
     Exchange-correlation      = PBE ( 1  4  3  4 0 0)

     celldm(1)=  20.659106  celldm(2)=   0.000000  celldm(3)=   0.000000
     celldm(4)=   0.000000  celldm(5)=   0.000000  celldm(6)=   0.000000

     crystal axes: (cart. coord. in units of alat)
               a(1) = (   1.000000   0.000000   0.000000 )
               a(2) = (   0.000000   1.000000   0.000000 )
               a(3) = (   0.000000   0.000000   1.000000 )

     reciprocal axes: (cart. coord. in units 2 pi/alat)
               b(1) = (  1.000000  0.000000  0.000000 )
               b(2) = (  0.000000  1.000000  0.000000 )
               b(3) = (  0.000000  0.000000  1.000000 )

     PseudoPot. # 1 for Si read from file:
     ~/kedar/softwares/SSSP_precision_pseudos/Si.pbe-n-rrkjus_psl.1.0.0.UPF
     MD5 check sum: Not computed, couldn't open file
     Pseudo is Ultrasoft + core correction, Zval =  4.0
     Generated using "atomic" code by A. Dal Corso v.5.1
     Using radial grid of 1141 points,  6 beta functions with:
                l(1) =   0
                l(2) =   0
                l(3) =   1
                l(4) =   1
                l(5) =   2
                l(6) =   2
     Q(r) pseudized with 0 coefficients

     atomic species   valence    mass     pseudopotential
        Si             4.00    28.08550     Si( 1.00)

      4 Sym. Ops., with inversion, found ( 3 have fractional translation)

   Cartesian axes

     site n.     atom                  positions (alat units)
         1           Si  tau(   1) = (   0.4404043   0.4375000   0.4375000  )
         2           Si  tau(   2) = (   0.9375000   0.4375000   0.4375000  )
         3           Si  tau(   3) = (   0.4375000   0.9375000   0.4375000  )
         4           Si  tau(   4) = (   0.9375000   0.9375000   0.4375000  )
         5           Si  tau(   5) = (   0.4375000   0.4375000   0.9375000  )
         6           Si  tau(   6) = (   0.9375000   0.4375000   0.9375000  )
         7           Si  tau(   7) = (   0.4375000   0.9375000   0.9375000  )
         8           Si  tau(   8) = (   0.9375000   0.9375000   0.9375000  )
         9           Si  tau(   9) = (   0.4375000   0.1875000   0.1875000  )
        10           Si  tau(  10) = (   0.9375000   0.1875000   0.1875000  )
        11           Si  tau(  11) = (   0.4375000   0.6875000   0.1875000  )
        12           Si  tau(  12) = (   0.9375000   0.6875000   0.1875000  )
        13           Si  tau(  13) = (   0.4375000   0.1875000   0.6875000  )
        14           Si  tau(  14) = (   0.9375000   0.1875000   0.6875000  )
        15           Si  tau(  15) = (   0.4375000   0.6875000   0.6875000  )
        16           Si  tau(  16) = (   0.9375000   0.6875000   0.6875000  )
        17           Si  tau(  17) = (   0.1875000   0.4375000   0.1875000  )
        18           Si  tau(  18) = (   0.6875000   0.4375000   0.1875000  )
        19           Si  tau(  19) = (   0.1875000   0.9375000   0.1875000  )
        20           Si  tau(  20) = (   0.6875000   0.9375000   0.1875000  )
        21           Si  tau(  21) = (   0.1875000   0.4375000   0.6875000  )
        22           Si  tau(  22) = (   0.6875000   0.4375000   0.6875000  )
        23           Si  tau(  23) = (   0.1875000   0.9375000   0.6875000  )
        24           Si  tau(  24) = (   0.6875000   0.9375000   0.6875000  )
        25           Si  tau(  25) = (   0.1875000   0.1875000   0.4375000  )
        26           Si  tau(  26) = (   0.6875000   0.1875000   0.4375000  )
        27           Si  tau(  27) = (   0.1875000   0.6875000   0.4375000  )
        28           Si  tau(  28) = (   0.6875000   0.6875000   0.4375000  )
        29           Si  tau(  29) = (   0.1875000   0.1875000   0.9375000  )
        30           Si  tau(  30) = (   0.6875000   0.1875000   0.9375000  )
        31           Si  tau(  31) = (   0.1875000   0.6875000   0.9375000  )
        32           Si  tau(  32) = (   0.6875000   0.6875000   0.9375000  )
        33           Si  tau(  33) = (   0.0625000   0.0625000   0.0625000  )
        34           Si  tau(  34) = (   0.5625000   0.0625000   0.0625000  )
        35           Si  tau(  35) = (   0.0625000   0.5625000   0.0625000  )
        36           Si  tau(  36) = (   0.5625000   0.5625000   0.0625000  )
        37           Si  tau(  37) = (   0.0625000   0.0625000   0.5625000  )
        38           Si  tau(  38) = (   0.5625000   0.0625000   0.5625000  )
        39           Si  tau(  39) = (   0.0625000   0.5625000   0.5625000  )
        40           Si  tau(  40) = (   0.5625000   0.5625000   0.5625000  )
        41           Si  tau(  41) = (   0.0625000   0.3125000   0.3125000  )
        42           Si  tau(  42) = (   0.5625000   0.3125000   0.3125000  )
        43           Si  tau(  43) = (   0.0625000   0.8125000   0.3125000  )
        44           Si  tau(  44) = (   0.5625000   0.8125000   0.3125000  )
        45           Si  tau(  45) = (   0.0625000   0.3125000   0.8125000  )
        46           Si  tau(  46) = (   0.5625000   0.3125000   0.8125000  )
        47           Si  tau(  47) = (   0.0625000   0.8125000   0.8125000  )
        48           Si  tau(  48) = (   0.5625000   0.8125000   0.8125000  )
        49           Si  tau(  49) = (   0.3125000   0.0625000   0.3125000  )
        50           Si  tau(  50) = (   0.8125000   0.0625000   0.3125000  )
        51           Si  tau(  51) = (   0.3095957   0.5625000   0.3125000  )
        52           Si  tau(  52) = (   0.8125000   0.5625000   0.3125000  )
        53           Si  tau(  53) = (   0.3125000   0.0625000   0.8125000  )
        54           Si  tau(  54) = (   0.8125000   0.0625000   0.8125000  )
        55           Si  tau(  55) = (   0.3125000   0.5625000   0.8125000  )
        56           Si  tau(  56) = (   0.8125000   0.5625000   0.8125000  )
        57           Si  tau(  57) = (   0.3125000   0.3125000   0.0625000  )
        58           Si  tau(  58) = (   0.8125000   0.3125000   0.0625000  )
        59           Si  tau(  59) = (   0.3125000   0.8125000   0.0625000  )
        60           Si  tau(  60) = (   0.8125000   0.8125000   0.0625000  )
        61           Si  tau(  61) = (   0.3125000   0.3125000   0.5625000  )
        62           Si  tau(  62) = (   0.8125000   0.3125000   0.5625000  )
        63           Si  tau(  63) = (   0.3125000   0.8125000   0.5625000  )
        64           Si  tau(  64) = (   0.8125000   0.8125000   0.5625000  )

     number of k points=     3  gaussian smearing, width (Ry)=  0.0100
                       cart. coord. in units 2pi/alat
        k(    1) = (   0.2500000   0.2500000   0.2500000), wk =   1.0000000
        k(    2) = (   0.2500000   0.2500000  -0.2500000), wk =   0.5000000
        k(    3) = (   0.2500000  -0.2500000   0.2500000), wk =   0.5000000

     Check: negative/imaginary core charge=   -0.000001    0.000000

     Initial potential from superposition of free atoms

     starting charge  255.96421, renormalised to  256.00000
     Starting wfcs are  256 randomized atomic wfcs

     Self-consistent Calculation

     iteration #  1     ecut=    50.00 Ry     beta= 0.70
     Davidson diagonalization with overlap
     ethr =  1.00E-02,  avg # of iterations =  3.0

     Threshold (ethr) on eigenvalues was too large:
     Diagonalizing with lowered threshold

     Davidson diagonalization with overlap
     ethr =  6.78E-04,  avg # of iterations =  2.0

     total energy              =    -730.80240317 Ry
     Harris-Foulkes estimate   =    -731.20837213 Ry
     estimated scf accuracy    <       1.72011018 Ry

[...]

     total energy              =    -730.87979918 Ry
     Harris-Foulkes estimate   =    -730.87979919 Ry
     estimated scf accuracy    <       0.00000003 Ry

     iteration # 12     ecut=    50.00 Ry     beta= 0.70
     Davidson diagonalization with overlap
     ethr =  9.92E-12,  avg # of iterations =  3.0

     End of self-consistent calculation

          k = 0.2500 0.2500 0.2500 ( 52563 PWs)   bands (ev):

    -5.6274  -5.1019  -5.0996  -5.0968  -4.6030  -4.6002  -4.5975  -4.1661
    -4.0698  -4.0668  -4.0644  -3.6612  -3.6542  -3.6515  -3.6512  -3.6468
    -3.6467  -3.4620  -3.4615  -3.4568  -2.9659  -2.9617  -2.9573  -2.5981
    -2.5953  -2.5907  -2.4353  -2.4282  -2.4263  -2.4262  -2.4215  -2.4207
    -0.8951  -0.8850  -0.8841  -0.8834  -0.8785  -0.8770  -0.7903  -0.7851
    -0.7817  -0.6729  -0.6630  -0.6623  -0.5940  -0.5838  -0.5811   0.1164
     0.1956   0.2036   0.2042   0.2051   0.2129   0.2154   1.0700   1.0795
     1.0804   1.4063   1.4143   1.4153   2.0182   2.0197   2.0216   2.0225
     2.0251   2.0274   2.0791   2.0840   2.0856   2.6285   2.6321   2.6334
     2.7317   2.7336   2.7363   2.7368   2.7423   2.7441   2.7880   2.7934
     2.7971   3.0927   3.0995   3.0999   3.1010   3.1042   3.1054   3.3645
     3.3650   3.3678   3.3748   3.3833   3.3842   3.7221   3.7260   3.7289
     3.7449   3.7460   3.7493   3.8308   3.8324   3.8376   4.0978   4.1008
     4.1049   4.1066   4.1074   4.1086   4.1450   4.1465   4.1527   4.4026
     4.4642   4.4649   4.4697   4.7057   4.7075   4.7145   4.7612   4.7701
     4.7710   4.9255   4.9356   5.2353   5.2367   5.2464   5.7139   5.7256
     6.9303   6.9305   6.9348   7.3664   7.3717   7.3757   7.5982   7.8532
     7.8584   7.8619   7.9806   7.9861   7.9870   8.1424   8.1458   8.1475
     8.1635   8.1640   8.1697   8.3866   8.3929   8.3955   8.3969   8.3975
     8.4003   8.4466

[...]

          k = 0.2500-0.2500 0.2500 ( 52563 PWs)   bands (ev):

    -5.6275  -5.1008  -5.0995  -5.0975  -4.6018  -4.6010  -4.5982  -4.1683
    -4.0690  -4.0676  -4.0665  -3.6554  -3.6525  -3.6524  -3.6524  -3.6491
    -3.6441  -3.4624  -3.4614  -3.4522  -2.9686  -2.9654  -2.9622  -2.5972
    -2.5946  -2.5901  -2.4311  -2.4293  -2.4276  -2.4272  -2.4246  -2.4146
    -0.8924  -0.8901  -0.8862  -0.8848  -0.8832  -0.8719  -0.7903  -0.7864
    -0.7853  -0.6757  -0.6701  -0.6637  -0.5844  -0.5817  -0.5667   0.1239
     0.1952   0.1972   0.2026   0.2039   0.2064   0.2133   1.0755   1.0791
     1.0899   1.4080   1.4104   1.4173   2.0171   2.0195   2.0222   2.0231
     2.0247   2.0266   2.0775   2.0790   2.0856   2.6335   2.6344   2.6376
     2.7277   2.7306   2.7339   2.7365   2.7397   2.7406   2.7845   2.7880
     2.7920   3.0980   3.0982   3.0995   3.0997   3.1004   3.1090   3.3603
     3.3646   3.3660   3.3750   3.3757   3.3830   3.7265   3.7283   3.7333
     3.7488   3.7518   3.7592   3.8265   3.8318   3.8353   4.1047   4.1063
     4.1064   4.1096   4.1100   4.1220   4.1398   4.1457   4.1512   4.4107
     4.4566   4.4632   4.4653   4.7001   4.7067   4.7087   4.7719   4.7730
     4.7872   4.9227   4.9332   5.2267   5.2357   5.2392   5.7091   5.7204
     6.9251   6.9266   6.9340   7.3632   7.3701   7.3758   7.5952   7.8496
     7.8540   7.8604   7.9816   7.9902   7.9903   8.1419   8.1425   8.1477
     8.1596   8.1654   8.1682   8.3904   8.3961   8.3968   8.3973   8.4030
     8.4071   8.4420

     the Fermi energy is     6.3204 ev

!    total energy              =    -730.87979918 Ry
     Harris-Foulkes estimate   =    -730.87979918 Ry
     estimated scf accuracy    <          1.7E-09 Ry

     The total energy is the sum of the following terms:

     one-electron contribution =     160.47329920 Ry
     hartree contribution      =      35.78707427 Ry
     xc contribution           =    -393.13403336 Ry
     ewald contribution        =    -534.00613929 Ry
     smearing contrib. (-TS)   =      -0.00000000 Ry

     convergence has been achieved in  12 iterations

     Forces acting on atoms (cartesian axes, Ry/au):

     atom    1 type  1   force =    -0.01976285    0.00228748   -0.00228748
     atom    2 type  1   force =     0.00003460    0.00003627   -0.00003627
     atom    3 type  1   force =     0.00011217    0.00003628   -0.00005051
     atom    4 type  1   force =    -0.00003516    0.00002699   -0.00003073
     atom    5 type  1   force =     0.00011217    0.00005051   -0.00003628
     atom    6 type  1   force =    -0.00003516    0.00003073   -0.00002699
     atom    7 type  1   force =    -0.00072828    0.00002719   -0.00002719
     atom    8 type  1   force =     0.00004580    0.00002999   -0.00002999
     atom    9 type  1   force =    -0.00047305    0.00007835    0.00016625
     atom   10 type  1   force =    -0.00002727   -0.00001816    0.00003888
     atom   11 type  1   force =    -0.00436000   -0.00240384    0.00240384
     atom   12 type  1   force =     0.00001297   -0.00002671    0.00002671
     atom   13 type  1   force =    -0.00077907   -0.00013596    0.00013596
     atom   14 type  1   force =     0.00002155   -0.00003976    0.00003976
     atom   15 type  1   force =    -0.00047305   -0.00016625   -0.00007835
     atom   16 type  1   force =    -0.00002727   -0.00003888    0.00001816
     atom   17 type  1   force =    -0.00372666   -0.00284146   -0.00251102
     atom   18 type  1   force =     0.00024753   -0.00015213   -0.00026773
     atom   19 type  1   force =     0.00010214   -0.00004793   -0.00012383
     atom   20 type  1   force =     0.00001689   -0.00003439    0.00004862
     atom   21 type  1   force =     0.00028964    0.00006266   -0.00026165
     atom   22 type  1   force =     0.00021201    0.00008826    0.00020476
     atom   23 type  1   force =    -0.00021494   -0.00001897    0.00004750
     atom   24 type  1   force =     0.00006435   -0.00002153   -0.00010698
     atom   25 type  1   force =     0.00028964    0.00026165   -0.00006266
     atom   26 type  1   force =     0.00021201   -0.00020476   -0.00008826
     atom   27 type  1   force =    -0.00372666    0.00251102    0.00284146
     atom   28 type  1   force =     0.00024753    0.00026773    0.00015213
     atom   29 type  1   force =    -0.00021494   -0.00004750    0.00001897
     atom   30 type  1   force =     0.00006435    0.00010698    0.00002153
     atom   31 type  1   force =     0.00010214    0.00012383    0.00004793
     atom   32 type  1   force =     0.00001689   -0.00004862    0.00003439
     atom   33 type  1   force =    -0.00006435    0.00002153    0.00010698
     atom   34 type  1   force =     0.00021494    0.00001897   -0.00004750
     atom   35 type  1   force =    -0.00021201   -0.00008826   -0.00020476
     atom   36 type  1   force =    -0.00028964   -0.00006266    0.00026165
     atom   37 type  1   force =    -0.00001689    0.00003439   -0.00004862
     atom   38 type  1   force =    -0.00010214    0.00004793    0.00012383
     atom   39 type  1   force =    -0.00024753    0.00015213    0.00026773
     atom   40 type  1   force =     0.00372666    0.00284146    0.00251102
     atom   41 type  1   force =    -0.00024753   -0.00026773   -0.00015213
     atom   42 type  1   force =     0.00372666   -0.00251102   -0.00284146
     atom   43 type  1   force =    -0.00021201    0.00020476    0.00008826
     atom   44 type  1   force =    -0.00028964   -0.00026165    0.00006266
     atom   45 type  1   force =    -0.00001689    0.00004862   -0.00003439
     atom   46 type  1   force =    -0.00010214   -0.00012383   -0.00004793
     atom   47 type  1   force =    -0.00006435   -0.00010698   -0.00002153
     atom   48 type  1   force =     0.00021494    0.00004750   -0.00001897
     atom   49 type  1   force =    -0.00011217   -0.00003628    0.00005051
     atom   50 type  1   force =     0.00003516   -0.00002699    0.00003073
     atom   51 type  1   force =     0.01976285   -0.00228748    0.00228748
     atom   52 type  1   force =    -0.00003460   -0.00003627    0.00003627
     atom   53 type  1   force =     0.00072828   -0.00002719    0.00002719
     atom   54 type  1   force =    -0.00004580   -0.00002999    0.00002999
     atom   55 type  1   force =    -0.00011217   -0.00005051    0.00003628
     atom   56 type  1   force =     0.00003516   -0.00003073    0.00002699
     atom   57 type  1   force =     0.00047305    0.00016625    0.00007835
     atom   58 type  1   force =     0.00002727    0.00003888   -0.00001816
     atom   59 type  1   force =     0.00077907    0.00013596   -0.00013596
     atom   60 type  1   force =    -0.00002155    0.00003976   -0.00003976
     atom   61 type  1   force =     0.00436000    0.00240384   -0.00240384
     atom   62 type  1   force =    -0.00001297    0.00002671   -0.00002671
     atom   63 type  1   force =     0.00047305   -0.00007835   -0.00016625
     atom   64 type  1   force =     0.00002727    0.00001816   -0.00003888

     Total force =     0.031333     Total SCF correction =     0.000071

     Writing output data file pwscf.save/

     General routines

     Parallel routines

   This run was terminated on:  21:41:46  14Feb2020

   JOB DONE.