     Program PWSCF v.6.3MaX starts on 13Feb2020 at 22:42:10

     Waiting for input...
     Reading input from standard input

     Current dimensions of program PWSCF are:
     Max number of different atomic species (ntypx) = 10
     Max number of k-points (npk) =  40000
     Max angular momentum in pseudopotentials (lmaxx) =  3

     Subspace diagonalization in iterative solution of the eigenvalue problem:
     a serial algorithm will be used

     bravais-lattice index     =            0
     lattice parameter (alat)  =      20.6591  a.u.
     unit-cell volume          =    8817.2783 (a.u.)^3
     number of atoms/cell      =           64
     number of atomic types    =            1
     number of electrons       =       256.00
     number of Kohn-Sham states=          154
     kinetic-energy cutoff     =      50.0000  Ry
     charge density cutoff     =     200.0000  Ry
     convergence threshold     =      1.0E-08
     mixing beta               =       0.7000
     number of iterations used =            8  plain     mixing
     Exchange-correlation      = PBE ( 1  4  3  4 0 0)

     celldm(1)=  20.659106  celldm(2)=   0.000000  celldm(3)=   0.000000
     celldm(4)=   0.000000  celldm(5)=   0.000000  celldm(6)=   0.000000

     crystal axes: (cart. coord. in units of alat)
               a(1) = (   1.000000   0.000000   0.000000 )
               a(2) = (   0.000000   1.000000   0.000000 )
               a(3) = (   0.000000   0.000000   1.000000 )

     reciprocal axes: (cart. coord. in units 2 pi/alat)
               b(1) = (  1.000000  0.000000  0.000000 )
               b(2) = (  0.000000  1.000000  0.000000 )
               b(3) = (  0.000000  0.000000  1.000000 )

     PseudoPot. # 1 for Si read from file:
     ~/kedar/softwares/SSSP_precision_pseudos/Si.pbe-n-rrkjus_psl.1.0.0.UPF
     MD5 check sum: Not computed, couldn't open file
     Pseudo is Ultrasoft + core correction, Zval =  4.0
     Generated using "atomic" code by A. Dal Corso v.5.1
     Using radial grid of 1141 points,  6 beta functions with:
                l(1) =   0
                l(2) =   0
                l(3) =   1
                l(4) =   1
                l(5) =   2
                l(6) =   2
     Q(r) pseudized with 0 coefficients

     atomic species   valence    mass     pseudopotential
        Si             4.00    28.08550     Si( 1.00)

      2 Sym. Ops. (no inversion) found

   Cartesian axes

     site n.     atom                  positions (alat units)
         1           Si  tau(   1) = (   0.4404043   0.4375000   0.4375000  )
         2           Si  tau(   2) = (   0.9375000   0.4375000   0.4375000  )
         3           Si  tau(   3) = (   0.4375000   0.9375000   0.4375000  )
         4           Si  tau(   4) = (   0.9375000   0.9375000   0.4375000  )
         5           Si  tau(   5) = (   0.4375000   0.4375000   0.9375000  )
         6           Si  tau(   6) = (   0.9375000   0.4375000   0.9375000  )
         7           Si  tau(   7) = (   0.4375000   0.9375000   0.9375000  )
         8           Si  tau(   8) = (   0.9375000   0.9375000   0.9375000  )
         9           Si  tau(   9) = (   0.4375000   0.1875000   0.1875000  )
        10           Si  tau(  10) = (   0.9345957   0.1875000   0.1875000  )
        11           Si  tau(  11) = (   0.4375000   0.6875000   0.1875000  )
        12           Si  tau(  12) = (   0.9375000   0.6875000   0.1875000  )
        13           Si  tau(  13) = (   0.4375000   0.1875000   0.6875000  )
        14           Si  tau(  14) = (   0.9375000   0.1875000   0.6875000  )
        15           Si  tau(  15) = (   0.4375000   0.6875000   0.6875000  )
        16           Si  tau(  16) = (   0.9375000   0.6875000   0.6875000  )
        17           Si  tau(  17) = (   0.1875000   0.4375000   0.1875000  )
        18           Si  tau(  18) = (   0.6875000   0.4375000   0.1875000  )
        19           Si  tau(  19) = (   0.1875000   0.9375000   0.1875000  )
        20           Si  tau(  20) = (   0.6875000   0.9375000   0.1875000  )
        21           Si  tau(  21) = (   0.1875000   0.4375000   0.6875000  )
        22           Si  tau(  22) = (   0.6875000   0.4375000   0.6875000  )
        23           Si  tau(  23) = (   0.1875000   0.9375000   0.6875000  )
        24           Si  tau(  24) = (   0.6875000   0.9375000   0.6875000  )
        25           Si  tau(  25) = (   0.1875000   0.1875000   0.4375000  )
        26           Si  tau(  26) = (   0.6875000   0.1875000   0.4375000  )
        27           Si  tau(  27) = (   0.1875000   0.6875000   0.4375000  )
        28           Si  tau(  28) = (   0.6875000   0.6875000   0.4375000  )
        29           Si  tau(  29) = (   0.1875000   0.1875000   0.9375000  )
        30           Si  tau(  30) = (   0.6875000   0.1875000   0.9375000  )
        31           Si  tau(  31) = (   0.1875000   0.6875000   0.9375000  )
        32           Si  tau(  32) = (   0.6875000   0.6875000   0.9375000  )
        33           Si  tau(  33) = (   0.0625000   0.0625000   0.0625000  )
        34           Si  tau(  34) = (   0.5625000   0.0625000   0.0625000  )
        35           Si  tau(  35) = (   0.0625000   0.5625000   0.0625000  )
        36           Si  tau(  36) = (   0.5625000   0.5625000   0.0625000  )
        37           Si  tau(  37) = (   0.0625000   0.0625000   0.5625000  )
        38           Si  tau(  38) = (   0.5625000   0.0625000   0.5625000  )
        39           Si  tau(  39) = (   0.0625000   0.5625000   0.5625000  )
        40           Si  tau(  40) = (   0.5625000   0.5625000   0.5625000  )
        41           Si  tau(  41) = (   0.0625000   0.3125000   0.3125000  )
        42           Si  tau(  42) = (   0.5625000   0.3125000   0.3125000  )
        43           Si  tau(  43) = (   0.0625000   0.8125000   0.3125000  )
        44           Si  tau(  44) = (   0.5625000   0.8125000   0.3125000  )
        45           Si  tau(  45) = (   0.0625000   0.3125000   0.8125000  )
        46           Si  tau(  46) = (   0.5625000   0.3125000   0.8125000  )
        47           Si  tau(  47) = (   0.0625000   0.8125000   0.8125000  )
        48           Si  tau(  48) = (   0.5625000   0.8125000   0.8125000  )
        49           Si  tau(  49) = (   0.3125000   0.0625000   0.3125000  )
        50           Si  tau(  50) = (   0.8125000   0.0625000   0.3125000  )
        51           Si  tau(  51) = (   0.3125000   0.5625000   0.3125000  )
        52           Si  tau(  52) = (   0.8125000   0.5625000   0.3125000  )
        53           Si  tau(  53) = (   0.3125000   0.0625000   0.8125000  )
        54           Si  tau(  54) = (   0.8125000   0.0625000   0.8125000  )
        55           Si  tau(  55) = (   0.3125000   0.5625000   0.8125000  )
        56           Si  tau(  56) = (   0.8125000   0.5625000   0.8125000  )
        57           Si  tau(  57) = (   0.3125000   0.3125000   0.0625000  )
        58           Si  tau(  58) = (   0.8125000   0.3125000   0.0625000  )
        59           Si  tau(  59) = (   0.3125000   0.8125000   0.0625000  )
        60           Si  tau(  60) = (   0.8125000   0.8125000   0.0625000  )
        61           Si  tau(  61) = (   0.3125000   0.3125000   0.5625000  )
        62           Si  tau(  62) = (   0.8125000   0.3125000   0.5625000  )
        63           Si  tau(  63) = (   0.3125000   0.8125000   0.5625000  )
        64           Si  tau(  64) = (   0.8125000   0.8125000   0.5625000  )

     number of k points=     3  gaussian smearing, width (Ry)=  0.0100
                       cart. coord. in units 2pi/alat
        k(    1) = (   0.2500000   0.2500000   0.2500000), wk =   0.5000000
        k(    2) = (  -0.2500000   0.2500000  -0.2500000), wk =   1.0000000
        k(    3) = (   0.2500000  -0.2500000  -0.2500000), wk =   0.5000000

     Check: negative/imaginary core charge=   -0.000001    0.000000

     Initial potential from superposition of free atoms

     starting charge  255.96421, renormalised to  256.00000
     Starting wfcs are  256 randomized atomic wfcs

     Self-consistent Calculation

     iteration #  1     ecut=    50.00 Ry     beta= 0.70
     Davidson diagonalization with overlap
     ethr =  1.00E-02,  avg # of iterations =  3.0

     Threshold (ethr) on eigenvalues was too large:
     Diagonalizing with lowered threshold

     Davidson diagonalization with overlap
     ethr =  6.78E-04,  avg # of iterations =  2.0

     total energy              =    -730.80249984 Ry
     Harris-Foulkes estimate   =    -731.20831449 Ry
     estimated scf accuracy    <       1.71968888 Ry

[...]

     total energy              =    -730.88002558 Ry
     Harris-Foulkes estimate   =    -730.88002559 Ry
     estimated scf accuracy    <       0.00000001 Ry

     iteration # 12     ecut=    50.00 Ry     beta= 0.70
     Davidson diagonalization with overlap
     ethr =  4.29E-12,  avg # of iterations =  3.0

     End of self-consistent calculation

          k = 0.2500 0.2500 0.2500 ( 52563 PWs)   bands (ev):

    -5.6275  -5.1026  -5.0992  -5.0963  -4.6032  -4.6001  -4.5973  -4.1672
    -4.0707  -4.0673  -4.0641  -3.6606  -3.6534  -3.6526  -3.6518  -3.6489
    -3.6413  -3.4617  -3.4593  -3.4569  -2.9673  -2.9634  -2.9597  -2.5993
    -2.5944  -2.5894  -2.4334  -2.4285  -2.4265  -2.4262  -2.4232  -2.4181
    -0.8900  -0.8875  -0.8844  -0.8843  -0.8805  -0.8789  -0.7923  -0.7862
    -0.7804  -0.6709  -0.6683  -0.6651  -0.5871  -0.5822  -0.5768   0.1202
     0.1966   0.2006   0.2040   0.2044   0.2090   0.2130   1.0769   1.0790
     1.0814   1.4102   1.4118   1.4138   2.0176   2.0205   2.0223   2.0237
     2.0249   2.0257   2.0794   2.0814   2.0842   2.6301   2.6333   2.6362
     2.7307   2.7318   2.7356   2.7362   2.7414   2.7429   2.7880   2.7898
     2.7923   3.0969   3.0985   3.0998   3.1005   3.1016   3.1065   3.3628
     3.3651   3.3664   3.3773   3.3798   3.3807   3.7259   3.7280   3.7287
     3.7470   3.7497   3.7534   3.8305   3.8325   3.8342   4.1029   4.1040
     4.1059   4.1067   4.1087   4.1146   4.1442   4.1473   4.1485   4.4063
     4.4609   4.4646   4.4666   4.7049   4.7075   4.7097   4.7685   4.7719
     4.7760   4.9293   4.9293   5.2333   5.2368   5.2397   5.7171   5.7173
     6.9295   6.9303   6.9309   7.3678   7.3705   7.3733   7.5967   7.8542
     7.8564   7.8584   7.9827   7.9862   7.9892   8.1420   8.1449   8.1470
     8.1622   8.1648   8.1683   8.3921   8.3940   8.3954   8.3967   8.4002
     8.4026   8.4440

          k =-0.2500 0.2500-0.2500 ( 52563 PWs)   bands (ev):

[...]

          k = 0.2500-0.2500-0.2500 ( 52563 PWs)   bands (ev):

    -5.6275  -5.1027  -5.0992  -5.0961  -4.6034  -4.6001  -4.5971  -4.1672
    -4.0709  -4.0673  -4.0639  -3.6619  -3.6538  -3.6508  -3.6502  -3.6494
    -3.6425  -3.4617  -3.4593  -3.4569  -2.9676  -2.9634  -2.9595  -2.5994
    -2.5944  -2.5894  -2.4336  -2.4290  -2.4257  -2.4256  -2.4236  -2.4184
    -0.8898  -0.8879  -0.8848  -0.8835  -0.8810  -0.8786  -0.7922  -0.7862
    -0.7805  -0.6708  -0.6683  -0.6652  -0.5867  -0.5822  -0.5771   0.1202
     0.1965   0.2000   0.2048   0.2051   0.2084   0.2127   1.0770   1.0790
     1.0814   1.4102   1.4118   1.4137   2.0195   2.0202   2.0206   2.0228
     2.0246   2.0269   2.0794   2.0814   2.0842   2.6301   2.6334   2.6362
     2.7296   2.7316   2.7368   2.7375   2.7410   2.7420   2.7878   2.7898
     2.7926   3.0949   3.0997   3.1007   3.1015   3.1026   3.1043   3.3627
     3.3651   3.3666   3.3773   3.3798   3.3808   3.7253   3.7280   3.7297
     3.7461   3.7497   3.7540   3.8306   3.8325   3.8342   4.1004   4.1055
     4.1076   4.1083   4.1094   4.1116   4.1443   4.1474   4.1484   4.4063
     4.4609   4.4646   4.4666   4.7050   4.7075   4.7096   4.7686   4.7719
     4.7759   4.9293   4.9294   5.2334   5.2368   5.2396   5.7171   5.7173
     6.9294   6.9303   6.9310   7.3678   7.3705   7.3733   7.5967   7.8541
     7.8564   7.8585   7.9828   7.9862   7.9891   8.1417   8.1449   8.1471
     8.1628   8.1648   8.1679   8.3908   8.3938   8.3973   8.3984   8.3999
     8.4009   8.4440

     the Fermi energy is     6.3200 ev

!    total energy              =    -730.88002559 Ry
     Harris-Foulkes estimate   =    -730.88002559 Ry
     estimated scf accuracy    <          1.8E-09 Ry

     The total energy is the sum of the following terms:

     one-electron contribution =     160.47254039 Ry
     hartree contribution      =      35.78750690 Ry
     xc contribution           =    -393.13399029 Ry
     ewald contribution        =    -534.00608258 Ry
     smearing contrib. (-TS)   =      -0.00000000 Ry

     convergence has been achieved in  12 iterations

     Forces acting on atoms (cartesian axes, Ry/au):

     atom    1 type  1   force =    -0.01605637    0.00000919    0.00000919
     atom    2 type  1   force =     0.00055011    0.00010933    0.00010933
     atom    3 type  1   force =     0.00005412    0.00000945   -0.00000877
     atom    4 type  1   force =     0.00052290    0.00011501   -0.00011482
     atom    5 type  1   force =     0.00005412   -0.00000877    0.00000945
     atom    6 type  1   force =     0.00052290   -0.00011482    0.00011501
     atom    7 type  1   force =    -0.00047712   -0.00000993   -0.00000993
     atom    8 type  1   force =     0.00055053   -0.00010938   -0.00010938
     atom    9 type  1   force =    -0.00055276    0.00011418    0.00011418
     atom   10 type  1   force =     0.01605603    0.00000882    0.00000882
     atom   11 type  1   force =    -0.00051942    0.00010984   -0.00011068
     atom   12 type  1   force =    -0.00005268    0.00000946   -0.00000947
     atom   13 type  1   force =    -0.00051942   -0.00011068    0.00010984
     atom   14 type  1   force =    -0.00005268   -0.00000947    0.00000946
     atom   15 type  1   force =    -0.00055571   -0.00011380   -0.00011380
     atom   16 type  1   force =     0.00047751   -0.00000867   -0.00000867
     atom   17 type  1   force =     0.00000019   -0.00033353    0.00011354
     atom   18 type  1   force =     0.00000066    0.00011445   -0.00034520
     atom   19 type  1   force =    -0.00018759    0.00021481    0.00003421
     atom   20 type  1   force =    -0.00019317   -0.00023785    0.00018961
     atom   21 type  1   force =     0.00018707    0.00018620   -0.00023356
     atom   22 type  1   force =     0.00019324    0.00003857    0.00022154
     atom   23 type  1   force =     0.00000050   -0.00006725    0.00008578
     atom   24 type  1   force =    -0.00000060    0.00008527   -0.00006639
     atom   25 type  1   force =     0.00000019    0.00011354   -0.00033353
     atom   26 type  1   force =     0.00000066   -0.00034520    0.00011445
     atom   27 type  1   force =     0.00018707   -0.00023356    0.00018620
     atom   28 type  1   force =     0.00019324    0.00022154    0.00003857
     atom   29 type  1   force =    -0.00018759    0.00003421    0.00021481
     atom   30 type  1   force =    -0.00019317    0.00018961   -0.00023785
     atom   31 type  1   force =     0.00000050    0.00008578   -0.00006725
     atom   32 type  1   force =    -0.00000060   -0.00006639    0.00008527
     atom   33 type  1   force =    -0.00386068    0.00254129    0.00254129
     atom   34 type  1   force =     0.00026996    0.00006507    0.00006507
     atom   35 type  1   force =     0.00008348    0.00006329    0.00007590
     atom   36 type  1   force =    -0.00008767    0.00007577    0.00006651
     atom   37 type  1   force =     0.00008348    0.00007590    0.00006329
     atom   38 type  1   force =    -0.00008767    0.00006651    0.00007577
     atom   39 type  1   force =    -0.00026498    0.00006486    0.00006486
     atom   40 type  1   force =     0.00397800    0.00276728    0.00276728
     atom   41 type  1   force =    -0.00385085   -0.00254743   -0.00254743
     atom   42 type  1   force =     0.00396859   -0.00277404   -0.00277404
     atom   43 type  1   force =     0.00008357   -0.00006121   -0.00007805
     atom   44 type  1   force =    -0.00008709   -0.00006390   -0.00007821
     atom   45 type  1   force =     0.00008357   -0.00007805   -0.00006121
     atom   46 type  1   force =    -0.00008709   -0.00007821   -0.00006390
     atom   47 type  1   force =    -0.00027486   -0.00005871   -0.00005871
     atom   48 type  1   force =     0.00027808   -0.00005816   -0.00005816
     atom   49 type  1   force =    -0.00004651   -0.00007424    0.00008820
     atom   50 type  1   force =    -0.00393068   -0.00276286    0.00276536
     atom   51 type  1   force =     0.00381222   -0.00253511    0.00253651
     atom   52 type  1   force =     0.00004920   -0.00007498    0.00008519
     atom   53 type  1   force =     0.00022896   -0.00005501    0.00005210
     atom   54 type  1   force =     0.00003852   -0.00007980    0.00006941
     atom   55 type  1   force =    -0.00003664   -0.00008112    0.00006843
     atom   56 type  1   force =    -0.00023033   -0.00005787    0.00005555
     atom   57 type  1   force =    -0.00004651    0.00008820   -0.00007424
     atom   58 type  1   force =    -0.00393068    0.00276536   -0.00276286
     atom   59 type  1   force =     0.00022896    0.00005210   -0.00005501
     atom   60 type  1   force =     0.00003852    0.00006941   -0.00007980
     atom   61 type  1   force =     0.00381222    0.00253651   -0.00253511
     atom   62 type  1   force =     0.00004920    0.00008519   -0.00007498
     atom   63 type  1   force =    -0.00003664    0.00006843   -0.00008112
     atom   64 type  1   force =    -0.00023033    0.00005555   -0.00005787

     Total force =     0.027477     Total SCF correction =     0.000080

     Writing output data file pwscf.save/

     General routines

     Parallel routines

       1h

   This run was terminated on:  23:43:38  13Feb2020

   JOB DONE.