     Program PWSCF v.6.3MaX starts on 14Feb2020 at 20:17:20

     R & G space division:  proc/nbgrp/npool/nimage =       2
     Waiting for input...
     Reading input from standard input

     Current dimensions of program PWSCF are:
     Max number of different atomic species (ntypx) = 10
     Max number of k-points (npk) =  40000
     Max angular momentum in pseudopotentials (lmaxx) =  3

     Subspace diagonalization in iterative solution of the eigenvalue problem:
     a serial algorithm will be used

     bravais-lattice index     =            0
     lattice parameter (alat)  =      20.6591  a.u.
     unit-cell volume          =    8817.2783 (a.u.)^3
     number of atoms/cell      =           64
     number of atomic types    =            1
     number of electrons       =       256.00
     number of Kohn-Sham states=          154
     kinetic-energy cutoff     =      50.0000  Ry
     charge density cutoff     =     200.0000  Ry
     convergence threshold     =      1.0E-08
     mixing beta               =       0.7000
     number of iterations used =            8  plain     mixing
     Exchange-correlation      = PBE ( 1  4  3  4 0 0)

     celldm(1)=  20.659106  celldm(2)=   0.000000  celldm(3)=   0.000000
     celldm(4)=   0.000000  celldm(5)=   0.000000  celldm(6)=   0.000000

     crystal axes: (cart. coord. in units of alat)
               a(1) = (   1.000000   0.000000   0.000000 )
               a(2) = (   0.000000   1.000000   0.000000 )
               a(3) = (   0.000000   0.000000   1.000000 )

     reciprocal axes: (cart. coord. in units 2 pi/alat)
               b(1) = (  1.000000  0.000000  0.000000 )
               b(2) = (  0.000000  1.000000  0.000000 )
               b(3) = (  0.000000  0.000000  1.000000 )

     PseudoPot. # 1 for Si read from file:
     ~/kedar/softwares/SSSP_precision_pseudos/Si.pbe-n-rrkjus_psl.1.0.0.UPF
     MD5 check sum: Not computed, couldn't open file
     Pseudo is Ultrasoft + core correction, Zval =  4.0
     Generated using "atomic" code by A. Dal Corso v.5.1
     Using radial grid of 1141 points,  6 beta functions with:
                l(1) =   0
                l(2) =   0
                l(3) =   1
                l(4) =   1
                l(5) =   2
                l(6) =   2
     Q(r) pseudized with 0 coefficients

     atomic species   valence    mass     pseudopotential
        Si             4.00    28.08550     Si( 1.00)

      2 Sym. Ops., with inversion, found ( 1 have fractional translation)

   Cartesian axes

     site n.     atom                  positions (alat units)
         1           Si  tau(   1) = (   0.4404043   0.4375000   0.4375000  )
         2           Si  tau(   2) = (   0.9375000   0.4375000   0.4375000  )
         3           Si  tau(   3) = (   0.4375000   0.9375000   0.4375000  )
         4           Si  tau(   4) = (   0.9375000   0.9375000   0.4375000  )
         5           Si  tau(   5) = (   0.4375000   0.4375000   0.9375000  )
         6           Si  tau(   6) = (   0.9375000   0.4375000   0.9375000  )
         7           Si  tau(   7) = (   0.4375000   0.9375000   0.9375000  )
         8           Si  tau(   8) = (   0.9375000   0.9375000   0.9375000  )
         9           Si  tau(   9) = (   0.4375000   0.1875000   0.1875000  )
        10           Si  tau(  10) = (   0.9375000   0.1875000   0.1875000  )
        11           Si  tau(  11) = (   0.4375000   0.6875000   0.1875000  )
        12           Si  tau(  12) = (   0.9375000   0.6875000   0.1875000  )
        13           Si  tau(  13) = (   0.4375000   0.1875000   0.6875000  )
        14           Si  tau(  14) = (   0.9375000   0.1875000   0.6875000  )
        15           Si  tau(  15) = (   0.4375000   0.6875000   0.6875000  )
        16           Si  tau(  16) = (   0.9375000   0.6875000   0.6875000  )
        17           Si  tau(  17) = (   0.1875000   0.4375000   0.1875000  )
        18           Si  tau(  18) = (   0.6875000   0.4375000   0.1875000  )
        19           Si  tau(  19) = (   0.1875000   0.9375000   0.1875000  )
        20           Si  tau(  20) = (   0.6875000   0.9375000   0.1875000  )
        21           Si  tau(  21) = (   0.1875000   0.4375000   0.6875000  )
        22           Si  tau(  22) = (   0.6875000   0.4375000   0.6875000  )
        23           Si  tau(  23) = (   0.1875000   0.9375000   0.6875000  )
        24           Si  tau(  24) = (   0.6875000   0.9375000   0.6875000  )
        25           Si  tau(  25) = (   0.1875000   0.1875000   0.4375000  )
        26           Si  tau(  26) = (   0.6875000   0.1875000   0.4375000  )
        27           Si  tau(  27) = (   0.1875000   0.6875000   0.4375000  )
        28           Si  tau(  28) = (   0.6875000   0.6875000   0.4375000  )
        29           Si  tau(  29) = (   0.1875000   0.1875000   0.9375000  )
        30           Si  tau(  30) = (   0.6875000   0.1875000   0.9375000  )
        31           Si  tau(  31) = (   0.1875000   0.6875000   0.9375000  )
        32           Si  tau(  32) = (   0.6875000   0.6875000   0.9375000  )
        33           Si  tau(  33) = (   0.0625000   0.0625000   0.0625000  )
        34           Si  tau(  34) = (   0.5625000   0.0625000   0.0625000  )
        35           Si  tau(  35) = (   0.0625000   0.5625000   0.0625000  )
        36           Si  tau(  36) = (   0.5625000   0.5625000   0.0625000  )
        37           Si  tau(  37) = (   0.0625000   0.0625000   0.5625000  )
        38           Si  tau(  38) = (   0.5625000   0.0625000   0.5625000  )
        39           Si  tau(  39) = (   0.0625000   0.5625000   0.5625000  )
        40           Si  tau(  40) = (   0.5625000   0.5625000   0.5625000  )
        41           Si  tau(  41) = (   0.0625000   0.3125000   0.3125000  )
        42           Si  tau(  42) = (   0.5625000   0.3125000   0.3125000  )
        43           Si  tau(  43) = (   0.0625000   0.8125000   0.3125000  )
        44           Si  tau(  44) = (   0.5625000   0.8125000   0.3125000  )
        45           Si  tau(  45) = (   0.0625000   0.3125000   0.8125000  )
        46           Si  tau(  46) = (   0.5625000   0.3125000   0.8125000  )
        47           Si  tau(  47) = (   0.0625000   0.8125000   0.8125000  )
        48           Si  tau(  48) = (   0.5625000   0.8125000   0.8125000  )
        49           Si  tau(  49) = (   0.3125000   0.0625000   0.3125000  )
        50           Si  tau(  50) = (   0.8095957   0.0625000   0.3125000  )
        51           Si  tau(  51) = (   0.3125000   0.5625000   0.3125000  )
        52           Si  tau(  52) = (   0.8125000   0.5625000   0.3125000  )
        53           Si  tau(  53) = (   0.3125000   0.0625000   0.8125000  )
        54           Si  tau(  54) = (   0.8125000   0.0625000   0.8125000  )
        55           Si  tau(  55) = (   0.3125000   0.5625000   0.8125000  )
        56           Si  tau(  56) = (   0.8125000   0.5625000   0.8125000  )
        57           Si  tau(  57) = (   0.3125000   0.3125000   0.0625000  )
        58           Si  tau(  58) = (   0.8125000   0.3125000   0.0625000  )
        59           Si  tau(  59) = (   0.3125000   0.8125000   0.0625000  )
        60           Si  tau(  60) = (   0.8125000   0.8125000   0.0625000  )
        61           Si  tau(  61) = (   0.3125000   0.3125000   0.5625000  )
        62           Si  tau(  62) = (   0.8125000   0.3125000   0.5625000  )
        63           Si  tau(  63) = (   0.3125000   0.8125000   0.5625000  )
        64           Si  tau(  64) = (   0.8125000   0.8125000   0.5625000  )

     number of k points=     4  gaussian smearing, width (Ry)=  0.0100
                       cart. coord. in units 2pi/alat
        k(    1) = (   0.2500000   0.2500000   0.2500000), wk =   0.5000000
        k(    2) = (  -0.2500000   0.2500000  -0.2500000), wk =   0.5000000
        k(    3) = (   0.2500000  -0.2500000  -0.2500000), wk =   0.5000000
        k(    4) = (   0.2500000   0.2500000  -0.2500000), wk =   0.5000000

     Check: negative/imaginary core charge=   -0.000001    0.000000

     Initial potential from superposition of free atoms

     starting charge  255.96421, renormalised to  256.00000
     Starting wfcs are  256 randomized atomic wfcs

     Self-consistent Calculation

     iteration #  1     ecut=    50.00 Ry     beta= 0.70
     Davidson diagonalization with overlap
     ethr =  1.00E-02,  avg # of iterations =  3.0

     Threshold (ethr) on eigenvalues was too large:
     Diagonalizing with lowered threshold

     Davidson diagonalization with overlap
     ethr =  6.78E-04,  avg # of iterations =  2.0

     total energy              =    -730.80300743 Ry
     Harris-Foulkes estimate   =    -731.20920616 Ry
     estimated scf accuracy    <       1.72073859 Ry

[...]

     total energy              =    -730.88002391 Ry
     Harris-Foulkes estimate   =    -730.88002392 Ry
     estimated scf accuracy    <       0.00000002 Ry

     iteration # 12     ecut=    50.00 Ry     beta= 0.70
     Davidson diagonalization with overlap
     ethr =  6.16E-12,  avg # of iterations =  2.0

     End of self-consistent calculation

          k = 0.2500 0.2500 0.2500 ( 52563 PWs)   bands (ev):

    -5.6274  -5.1041  -5.0983  -5.0960  -4.6047  -4.5991  -4.5968  -4.1660
    -4.0718  -4.0660  -4.0631  -3.6608  -3.6562  -3.6511  -3.6499  -3.6475
    -3.6460  -3.4619  -3.4613  -3.4568  -2.9667  -2.9616  -2.9564  -2.5983
    -2.5954  -2.5908  -2.4356  -2.4297  -2.4252  -2.4242  -2.4222  -2.4209
    -0.8957  -0.8861  -0.8825  -0.8813  -0.8797  -0.8775  -0.7900  -0.7849
    -0.7817  -0.6728  -0.6630  -0.6625  -0.5907  -0.5878  -0.5807   0.1164
     0.1952   0.2024   0.2063   0.2085   0.2110   0.2133   1.0704   1.0786
     1.0809   1.4063   1.4144   1.4154   2.0180   2.0193   2.0224   2.0238
     2.0248   2.0266   2.0798   2.0840   2.0847   2.6284   2.6321   2.6334
     2.7334   2.7349   2.7363   2.7380   2.7412   2.7417   2.7875   2.7937
     2.7971   3.0924   3.0988   3.1004   3.1008   3.1043   3.1059   3.3646
     3.3647   3.3685   3.3749   3.3832   3.3837   3.7212   3.7272   3.7287
     3.7443   3.7463   3.7493   3.8307   3.8331   3.8370   4.0987   4.1009
     4.1029   4.1065   4.1080   4.1094   4.1446   4.1474   4.1520   4.4026
     4.4641   4.4649   4.4698   4.7056   4.7085   4.7136   4.7625   4.7683
     4.7714   4.9256   4.9354   5.2350   5.2384   5.2449   5.7138   5.7253
     6.9304   6.9305   6.9350   7.3664   7.3731   7.3743   7.5982   7.8533
     7.8585   7.8620   7.9807   7.9860   7.9870   8.1428   8.1439   8.1496
     8.1634   8.1641   8.1694   8.3864   8.3925   8.3940   8.3970   8.3986
     8.4009   8.4467

          k =-0.2500 0.2500-0.2500 ( 52563 PWs)   bands (ev):

[...]

          k = 0.2500 0.2500-0.2500 ( 52563 PWs)   bands (ev):

    -5.6276  -5.1025  -5.0991  -5.0960  -4.6036  -4.5999  -4.5973  -4.1682
    -4.0708  -4.0678  -4.0643  -3.6552  -3.6548  -3.6544  -3.6519  -3.6476
    -3.6414  -3.4623  -3.4620  -3.4517  -2.9696  -2.9648  -2.9616  -2.5978
    -2.5973  -2.5868  -2.4303  -2.4297  -2.4286  -2.4268  -2.4224  -2.4164
    -0.8908  -0.8905  -0.8858  -0.8853  -0.8792  -0.8768  -0.7919  -0.7900
    -0.7800  -0.6762  -0.6701  -0.6628  -0.5825  -0.5785  -0.5719   0.1238
     0.1945   0.1970   0.2022   0.2038   0.2105   0.2105   1.0785   1.0823
     1.0837   1.4090   1.4094   1.4172   2.0178   2.0189   2.0223   2.0229
     2.0241   2.0278   2.0778   2.0790   2.0846   2.6332   2.6336   2.6388
     2.7284   2.7299   2.7347   2.7378   2.7391   2.7407   2.7851   2.7859
     2.7925   3.0950   3.0986   3.0999   3.1013   3.1046   3.1055   3.3607
     3.3634   3.3662   3.3752   3.3760   3.3831   3.7274   3.7302   3.7312
     3.7487   3.7514   3.7591   3.8278   3.8327   3.8335   4.1049   4.1057
     4.1073   4.1098   4.1112   4.1204   4.1409   4.1471   4.1481   4.4105
     4.4585   4.4615   4.4651   4.7014   4.7068   4.7078   4.7728   4.7776
     4.7808   4.9228   4.9331   5.2283   5.2360   5.2372   5.7091   5.7204
     6.9253   6.9263   6.9340   7.3658   7.3710   7.3725   7.5951   7.8502
     7.8564   7.8572   7.9807   7.9903   7.9914   8.1409   8.1448   8.1469
     8.1623   8.1629   8.1681   8.3911   8.3951   8.3974   8.4001   8.4031
     8.4043   8.4420

     the Fermi energy is     6.3205 ev

!    total energy              =    -730.88002391 Ry
     Harris-Foulkes estimate   =    -730.88002391 Ry
     estimated scf accuracy    <          2.9E-09 Ry

     The total energy is the sum of the following terms:

     one-electron contribution =     160.47262114 Ry
     hartree contribution      =      35.78747707 Ry
     xc contribution           =    -393.13399752 Ry
     ewald contribution        =    -534.00612461 Ry
     smearing contrib. (-TS)   =      -0.00000000 Ry

     convergence has been achieved in  12 iterations

     Forces acting on atoms (cartesian axes, Ry/au):

     atom    1 type  1   force =    -0.01608506    0.00002767   -0.00002930
     atom    2 type  1   force =     0.00008185    0.00003663   -0.00005050
     atom    3 type  1   force =     0.00006448    0.00003658   -0.00003675
     atom    4 type  1   force =    -0.00384533    0.00251003   -0.00251043
     atom    5 type  1   force =     0.00007596    0.00002990   -0.00002989
     atom    6 type  1   force =    -0.00026198    0.00002757   -0.00002763
     atom    7 type  1   force =    -0.00050427    0.00003005   -0.00002683
     atom    8 type  1   force =     0.00008344    0.00005030   -0.00003635
     atom    9 type  1   force =    -0.00052037    0.00007773    0.00015058
     atom   10 type  1   force =    -0.00383804   -0.00250063    0.00252018
     atom   11 type  1   force =    -0.00055504    0.00008357   -0.00008032
     atom   12 type  1   force =     0.00005969   -0.00002797    0.00004170
     atom   13 type  1   force =    -0.00055411   -0.00013973    0.00013669
     atom   14 type  1   force =     0.00005888   -0.00005916    0.00004572
     atom   15 type  1   force =    -0.00051031   -0.00014448   -0.00008390
     atom   16 type  1   force =    -0.00025322   -0.00003709    0.00001760
     atom   17 type  1   force =     0.00020371   -0.00013501    0.00019842
     atom   18 type  1   force =     0.00029632   -0.00015282   -0.00027938
     atom   19 type  1   force =     0.00005432   -0.00004646   -0.00011327
     atom   20 type  1   force =    -0.00391456   -0.00274482   -0.00266016
     atom   21 type  1   force =     0.00024999    0.00007965   -0.00025535
     atom   22 type  1   force =    -0.00002051    0.00008539    0.00020135
     atom   23 type  1   force =     0.00001763   -0.00001752    0.00005086
     atom   24 type  1   force =     0.00010217   -0.00003921   -0.00011344
     atom   25 type  1   force =     0.00024075    0.00026133   -0.00007326
     atom   26 type  1   force =    -0.00372224    0.00250671    0.00262045
     atom   27 type  1   force =     0.00020355   -0.00019895    0.00013649
     atom   28 type  1   force =     0.00029667    0.00026732    0.00016352
     atom   29 type  1   force =     0.00001757   -0.00004982    0.00001584
     atom   30 type  1   force =     0.00010221    0.00012565    0.00002821
     atom   31 type  1   force =     0.00006344    0.00010740    0.00004011
     atom   32 type  1   force =    -0.00021440   -0.00004834    0.00003773
     atom   33 type  1   force =    -0.00024999   -0.00007965    0.00025535
     atom   34 type  1   force =     0.00002051   -0.00008539   -0.00020135
     atom   35 type  1   force =    -0.00001763    0.00001752   -0.00005086
     atom   36 type  1   force =    -0.00010217    0.00003921    0.00011344
     atom   37 type  1   force =    -0.00020371    0.00013501   -0.00019842
     atom   38 type  1   force =    -0.00029632    0.00015282    0.00027938
     atom   39 type  1   force =    -0.00005432    0.00004646    0.00011327
     atom   40 type  1   force =     0.00391456    0.00274482    0.00266016
     atom   41 type  1   force =    -0.00024075   -0.00026133    0.00007326
     atom   42 type  1   force =     0.00372224   -0.00250671   -0.00262045
     atom   43 type  1   force =    -0.00020355    0.00019895   -0.00013649
     atom   44 type  1   force =    -0.00029667   -0.00026732   -0.00016352
     atom   45 type  1   force =    -0.00001757    0.00004982   -0.00001584
     atom   46 type  1   force =    -0.00010221   -0.00012565   -0.00002821
     atom   47 type  1   force =    -0.00006344   -0.00010740   -0.00004011
     atom   48 type  1   force =     0.00021440    0.00004834   -0.00003773
     atom   49 type  1   force =    -0.00008185   -0.00003663    0.00005050
     atom   50 type  1   force =     0.01608506   -0.00002767    0.00002930
     atom   51 type  1   force =     0.00384533   -0.00251003    0.00251043
     atom   52 type  1   force =    -0.00006448   -0.00003658    0.00003675
     atom   53 type  1   force =     0.00026198   -0.00002757    0.00002763
     atom   54 type  1   force =    -0.00007596   -0.00002990    0.00002989
     atom   55 type  1   force =    -0.00008344   -0.00005030    0.00003635
     atom   56 type  1   force =     0.00050427   -0.00003005    0.00002683
     atom   57 type  1   force =    -0.00005888    0.00005916   -0.00004572
     atom   58 type  1   force =     0.00055411    0.00013973   -0.00013669
     atom   59 type  1   force =     0.00025322    0.00003709   -0.00001760
     atom   60 type  1   force =     0.00051031    0.00014448    0.00008390
     atom   61 type  1   force =     0.00383804    0.00250063   -0.00252018
     atom   62 type  1   force =     0.00052037   -0.00007773   -0.00015058
     atom   63 type  1   force =    -0.00005969    0.00002797   -0.00004170
     atom   64 type  1   force =     0.00055504   -0.00008357    0.00008032

     Total force =     0.027318     Total SCF correction =     0.000095

     Writing output data file pwscf.save/

     General routines

     Parallel routines

   This run was terminated on:  20:51:12  14Feb2020

   JOB DONE.