     Program PWSCF v.6.3MaX starts on 14Feb2020 at 15:15: 5

     R & G space division:  proc/nbgrp/npool/nimage =       2
     Waiting for input...
     Reading input from standard input

     Current dimensions of program PWSCF are:
     Max number of different atomic species (ntypx) = 10
     Max number of k-points (npk) =  40000
     Max angular momentum in pseudopotentials (lmaxx) =  3

     Subspace diagonalization in iterative solution of the eigenvalue problem:
     a serial algorithm will be used

     bravais-lattice index     =            0
     lattice parameter (alat)  =      20.6591  a.u.
     unit-cell volume          =    8817.2783 (a.u.)^3
     number of atoms/cell      =           64
     number of atomic types    =            1
     number of electrons       =       256.00
     number of Kohn-Sham states=          154
     kinetic-energy cutoff     =      50.0000  Ry
     charge density cutoff     =     200.0000  Ry
     convergence threshold     =      1.0E-08
     mixing beta               =       0.7000
     number of iterations used =            8  plain     mixing
     Exchange-correlation      = PBE ( 1  4  3  4 0 0)

     celldm(1)=  20.659106  celldm(2)=   0.000000  celldm(3)=   0.000000
     celldm(4)=   0.000000  celldm(5)=   0.000000  celldm(6)=   0.000000

     crystal axes: (cart. coord. in units of alat)
               a(1) = (   1.000000   0.000000   0.000000 )
               a(2) = (   0.000000   1.000000   0.000000 )
               a(3) = (   0.000000   0.000000   1.000000 )

     reciprocal axes: (cart. coord. in units 2 pi/alat)
               b(1) = (  1.000000  0.000000  0.000000 )
               b(2) = (  0.000000  1.000000  0.000000 )
               b(3) = (  0.000000  0.000000  1.000000 )

     PseudoPot. # 1 for Si read from file:
     ~/kedar/softwares/SSSP_precision_pseudos/Si.pbe-n-rrkjus_psl.1.0.0.UPF
     MD5 check sum: Not computed, couldn't open file
     Pseudo is Ultrasoft + core correction, Zval =  4.0
     Generated using "atomic" code by A. Dal Corso v.5.1
     Using radial grid of 1141 points,  6 beta functions with:
                l(1) =   0
                l(2) =   0
                l(3) =   1
                l(4) =   1
                l(5) =   2
                l(6) =   2
     Q(r) pseudized with 0 coefficients

     atomic species   valence    mass     pseudopotential
        Si             4.00    28.08550     Si( 1.00)

      2 Sym. Ops., with inversion, found ( 1 have fractional translation)

   Cartesian axes

     site n.     atom                  positions (alat units)
         1           Si  tau(   1) = (   0.4404043   0.4375000   0.4375000  )
         2           Si  tau(   2) = (   0.9375000   0.4375000   0.4375000  )
         3           Si  tau(   3) = (   0.4375000   0.9375000   0.4375000  )
         4           Si  tau(   4) = (   0.9375000   0.9375000   0.4375000  )
         5           Si  tau(   5) = (   0.4375000   0.4375000   0.9375000  )
         6           Si  tau(   6) = (   0.9375000   0.4375000   0.9375000  )
         7           Si  tau(   7) = (   0.4375000   0.9375000   0.9375000  )
         8           Si  tau(   8) = (   0.9375000   0.9375000   0.9375000  )
         9           Si  tau(   9) = (   0.4375000   0.1875000   0.1875000  )
        10           Si  tau(  10) = (   0.9375000   0.1875000   0.1875000  )
        11           Si  tau(  11) = (   0.4375000   0.6875000   0.1875000  )
        12           Si  tau(  12) = (   0.9375000   0.6875000   0.1875000  )
        13           Si  tau(  13) = (   0.4375000   0.1875000   0.6875000  )
        14           Si  tau(  14) = (   0.9375000   0.1875000   0.6875000  )
        15           Si  tau(  15) = (   0.4375000   0.6875000   0.6875000  )
        16           Si  tau(  16) = (   0.9375000   0.6875000   0.6875000  )
        17           Si  tau(  17) = (   0.1875000   0.4375000   0.1875000  )
        18           Si  tau(  18) = (   0.6875000   0.4375000   0.1875000  )
        19           Si  tau(  19) = (   0.1875000   0.9375000   0.1875000  )
        20           Si  tau(  20) = (   0.6875000   0.9375000   0.1875000  )
        21           Si  tau(  21) = (   0.1875000   0.4375000   0.6875000  )
        22           Si  tau(  22) = (   0.6875000   0.4375000   0.6875000  )
        23           Si  tau(  23) = (   0.1875000   0.9375000   0.6875000  )
        24           Si  tau(  24) = (   0.6875000   0.9375000   0.6875000  )
        25           Si  tau(  25) = (   0.1875000   0.1875000   0.4375000  )
        26           Si  tau(  26) = (   0.6875000   0.1875000   0.4375000  )
        27           Si  tau(  27) = (   0.1875000   0.6875000   0.4375000  )
        28           Si  tau(  28) = (   0.6875000   0.6875000   0.4375000  )
        29           Si  tau(  29) = (   0.1875000   0.1875000   0.9375000  )
        30           Si  tau(  30) = (   0.6875000   0.1875000   0.9375000  )
        31           Si  tau(  31) = (   0.1875000   0.6875000   0.9375000  )
        32           Si  tau(  32) = (   0.6875000   0.6875000   0.9375000  )
        33           Si  tau(  33) = (   0.0625000   0.0625000   0.0625000  )
        34           Si  tau(  34) = (   0.5625000   0.0625000   0.0625000  )
        35           Si  tau(  35) = (   0.0595957   0.5625000   0.0625000  )
        36           Si  tau(  36) = (   0.5625000   0.5625000   0.0625000  )
        37           Si  tau(  37) = (   0.0625000   0.0625000   0.5625000  )
        38           Si  tau(  38) = (   0.5625000   0.0625000   0.5625000  )
        39           Si  tau(  39) = (   0.0625000   0.5625000   0.5625000  )
        40           Si  tau(  40) = (   0.5625000   0.5625000   0.5625000  )
        41           Si  tau(  41) = (   0.0625000   0.3125000   0.3125000  )
        42           Si  tau(  42) = (   0.5625000   0.3125000   0.3125000  )
        43           Si  tau(  43) = (   0.0625000   0.8125000   0.3125000  )
        44           Si  tau(  44) = (   0.5625000   0.8125000   0.3125000  )
        45           Si  tau(  45) = (   0.0625000   0.3125000   0.8125000  )
        46           Si  tau(  46) = (   0.5625000   0.3125000   0.8125000  )
        47           Si  tau(  47) = (   0.0625000   0.8125000   0.8125000  )
        48           Si  tau(  48) = (   0.5625000   0.8125000   0.8125000  )
        49           Si  tau(  49) = (   0.3125000   0.0625000   0.3125000  )
        50           Si  tau(  50) = (   0.8125000   0.0625000   0.3125000  )
        51           Si  tau(  51) = (   0.3125000   0.5625000   0.3125000  )
        52           Si  tau(  52) = (   0.8125000   0.5625000   0.3125000  )
        53           Si  tau(  53) = (   0.3125000   0.0625000   0.8125000  )
        54           Si  tau(  54) = (   0.8125000   0.0625000   0.8125000  )
        55           Si  tau(  55) = (   0.3125000   0.5625000   0.8125000  )
        56           Si  tau(  56) = (   0.8125000   0.5625000   0.8125000  )
        57           Si  tau(  57) = (   0.3125000   0.3125000   0.0625000  )
        58           Si  tau(  58) = (   0.8125000   0.3125000   0.0625000  )
        59           Si  tau(  59) = (   0.3125000   0.8125000   0.0625000  )
        60           Si  tau(  60) = (   0.8125000   0.8125000   0.0625000  )
        61           Si  tau(  61) = (   0.3125000   0.3125000   0.5625000  )
        62           Si  tau(  62) = (   0.8125000   0.3125000   0.5625000  )
        63           Si  tau(  63) = (   0.3125000   0.8125000   0.5625000  )
        64           Si  tau(  64) = (   0.8125000   0.8125000   0.5625000  )

     number of k points=     4  gaussian smearing, width (Ry)=  0.0100
                       cart. coord. in units 2pi/alat
        k(    1) = (   0.2500000   0.2500000   0.2500000), wk =   0.5000000
        k(    2) = (  -0.2500000   0.2500000  -0.2500000), wk =   0.5000000
        k(    3) = (   0.2500000  -0.2500000  -0.2500000), wk =   0.5000000
        k(    4) = (   0.2500000   0.2500000  -0.2500000), wk =   0.5000000

     Check: negative/imaginary core charge=   -0.000001    0.000000

     Initial potential from superposition of free atoms

     starting charge  255.96421, renormalised to  256.00000
     Starting wfcs are  256 randomized atomic wfcs

     Self-consistent Calculation

     iteration #  1     ecut=    50.00 Ry     beta= 0.70
     Davidson diagonalization with overlap
     ethr =  1.00E-02,  avg # of iterations =  3.0

     Threshold (ethr) on eigenvalues was too large:
     Diagonalizing with lowered threshold

     Davidson diagonalization with overlap
     ethr =  6.78E-04,  avg # of iterations =  2.0

     total energy              =    -730.80290159 Ry
     Harris-Foulkes estimate   =    -731.20906112 Ry
     estimated scf accuracy    <       1.72062010 Ry

[...]

     total energy              =    -730.88002414 Ry
     Harris-Foulkes estimate   =    -730.88002415 Ry
     estimated scf accuracy    <       0.00000001 Ry

     iteration # 12     ecut=    50.00 Ry     beta= 0.70
     Davidson diagonalization with overlap
     ethr =  4.87E-12,  avg # of iterations =  3.0

     End of self-consistent calculation

          k = 0.2500 0.2500 0.2500 ( 52563 PWs)   bands (ev):

    -5.6274  -5.1026  -5.0996  -5.0962  -4.6031  -4.6006  -4.5969  -4.1659
    -4.0705  -4.0670  -4.0637  -3.6618  -3.6563  -3.6516  -3.6496  -3.6463
    -3.6457  -3.4664  -3.4574  -3.4564  -2.9653  -2.9621  -2.9574  -2.5992
    -2.5936  -2.5915  -2.4361  -2.4300  -2.4265  -2.4240  -2.4215  -2.4197
    -0.8912  -0.8889  -0.8841  -0.8812  -0.8806  -0.8769  -0.7870  -0.7867
    -0.7825  -0.6725  -0.6663  -0.6599  -0.5918  -0.5855  -0.5817   0.1165
     0.1997   0.2006   0.2044   0.2074   0.2101   0.2144   1.0745   1.0757
     1.0797   1.4064   1.4145   1.4149   2.0161   2.0213   2.0226   2.0235
     2.0254   2.0259   2.0796   2.0842   2.0852   2.6286   2.6322   2.6332
     2.7328   2.7352   2.7363   2.7369   2.7409   2.7430   2.7876   2.7949
     2.7956   3.0954   3.0965   3.1003   3.1011   3.1029   3.1064   3.3634
     3.3655   3.3689   3.3750   3.3830   3.3838   3.7232   3.7254   3.7285
     3.7417   3.7479   3.7505   3.8315   3.8323   3.8369   4.0932   4.1041
     4.1054   4.1067   4.1079   4.1091   4.1457   4.1466   4.1520   4.4023
     4.4639   4.4643   4.4709   4.7067   4.7078   4.7132   4.7642   4.7669
     4.7711   4.9255   4.9356   5.2359   5.2373   5.2450   5.7138   5.7253
     6.9266   6.9341   6.9352   7.3687   7.3701   7.3752   7.5982   7.8554
     7.8561   7.8623   7.9817   7.9821   7.9900   8.1427   8.1445   8.1484
     8.1617   8.1647   8.1707   8.3907   8.3914   8.3923   8.3966   8.3970
     8.4017   8.4465

          k =-0.2500 0.2500-0.2500 ( 52563 PWs)   bands (ev):

[...]

          k = 0.2500 0.2500-0.2500 ( 52563 PWs)   bands (ev):

    -5.6275  -5.1028  -5.1002  -5.0947  -4.6039  -4.6012  -4.5957  -4.1682
    -4.0714  -4.0686  -4.0631  -3.6569  -3.6553  -3.6527  -3.6515  -3.6466
    -3.6426  -3.4620  -3.4572  -3.4566  -2.9705  -2.9652  -2.9602  -2.5978
    -2.5936  -2.5908  -2.4311  -2.4299  -2.4278  -2.4269  -2.4223  -2.4160
    -0.8912  -0.8888  -0.8870  -0.8856  -0.8821  -0.8739  -0.7913  -0.7885
    -0.7821  -0.6731  -0.6727  -0.6630  -0.5837  -0.5765  -0.5730   0.1239
     0.1964   0.1982   0.2006   0.2027   0.2066   0.2141   1.0772   1.0795
     1.0878   1.4085   1.4097   1.4176   2.0175   2.0200   2.0213   2.0223
     2.0255   2.0267   2.0785   2.0794   2.0840   2.6332   2.6344   2.6380
     2.7299   2.7304   2.7350   2.7367   2.7381   2.7394   2.7850   2.7872
     2.7925   3.0954   3.0970   3.1003   3.1007   3.1025   3.1087   3.3605
     3.3645   3.3653   3.3752   3.3760   3.3833   3.7273   3.7281   3.7334
     3.7501   3.7532   3.7560   3.8273   3.8317   3.8347   4.1049   4.1063
     4.1078   4.1105   4.1137   4.1160   4.1411   4.1456   4.1495   4.4108
     4.4577   4.4631   4.4640   4.7012   4.7062   4.7084   4.7724   4.7760
     4.7828   4.9229   4.9332   5.2285   5.2347   5.2384   5.7091   5.7204
     6.9256   6.9300   6.9301   7.3665   7.3679   7.3747   7.5952   7.8505
     7.8540   7.8594   7.9850   7.9860   7.9913   8.1401   8.1458   8.1475
     8.1609   8.1652   8.1662   8.3916   8.3950   8.3969   8.3998   8.4013
     8.4067   8.4420

     the Fermi energy is     6.3205 ev

!    total energy              =    -730.88002414 Ry
     Harris-Foulkes estimate   =    -730.88002415 Ry
     estimated scf accuracy    <          5.1E-09 Ry

     The total energy is the sum of the following terms:

     one-electron contribution =     160.47261860 Ry
     hartree contribution      =      35.78747419 Ry
     xc contribution           =    -393.13399441 Ry
     ewald contribution        =    -534.00612253 Ry
     smearing contrib. (-TS)   =      -0.00000000 Ry

     convergence has been achieved in  12 iterations

     Forces acting on atoms (cartesian axes, Ry/au):

     atom    1 type  1   force =    -0.01607864   -0.00002921   -0.00002365
     atom    2 type  1   force =     0.00008358   -0.00004870   -0.00003675
     atom    3 type  1   force =     0.00007574   -0.00002940   -0.00003079
     atom    4 type  1   force =    -0.00026629   -0.00002752   -0.00002881
     atom    5 type  1   force =     0.00006631   -0.00003559   -0.00003704
     atom    6 type  1   force =    -0.00396598   -0.00273552   -0.00273738
     atom    7 type  1   force =    -0.00050324   -0.00002564   -0.00002745
     atom    8 type  1   force =     0.00008420   -0.00003879   -0.00004848
     atom    9 type  1   force =    -0.00055703    0.00014017    0.00014439
     atom   10 type  1   force =     0.00006001    0.00004596    0.00005791
     atom   11 type  1   force =    -0.00051670    0.00014767   -0.00007333
     atom   12 type  1   force =    -0.00395377    0.00274660    0.00272588
     atom   13 type  1   force =    -0.00050506   -0.00007977    0.00013890
     atom   14 type  1   force =    -0.00025694    0.00001921    0.00003835
     atom   15 type  1   force =    -0.00055553   -0.00008760   -0.00008899
     atom   16 type  1   force =     0.00005820    0.00003918    0.00002994
     atom   17 type  1   force =    -0.00360670    0.00240176   -0.00228529
     atom   18 type  1   force =     0.00024689   -0.00007802   -0.00026694
     atom   19 type  1   force =     0.00010000    0.00002553   -0.00012813
     atom   20 type  1   force =     0.00001600    0.00001834    0.00004696
     atom   21 type  1   force =     0.00028675    0.00016069   -0.00026106
     atom   22 type  1   force =     0.00020898    0.00014345    0.00020293
     atom   23 type  1   force =    -0.00021030    0.00003859    0.00004948
     atom   24 type  1   force =     0.00006438    0.00003956   -0.00010655
     atom   25 type  1   force =    -0.00002284    0.00019689   -0.00008321
     atom   26 type  1   force =     0.00025558   -0.00026094   -0.00008272
     atom   27 type  1   force =     0.00028786   -0.00027527    0.00014496
     atom   28 type  1   force =     0.00020898    0.00020083    0.00014273
     atom   29 type  1   force =     0.00010011   -0.00011400    0.00004094
     atom   30 type  1   force =     0.00001733    0.00004908    0.00001912
     atom   31 type  1   force =    -0.00379658   -0.00243292    0.00252181
     atom   32 type  1   force =     0.00005493   -0.00011288    0.00004445
     atom   33 type  1   force =    -0.00007574    0.00002940    0.00003079
     atom   34 type  1   force =     0.00026629    0.00002752    0.00002881
     atom   35 type  1   force =     0.01607864    0.00002921    0.00002365
     atom   36 type  1   force =    -0.00008358    0.00004870    0.00003675
     atom   37 type  1   force =     0.00050324    0.00002564    0.00002745
     atom   38 type  1   force =    -0.00008420    0.00003879    0.00004848
     atom   39 type  1   force =    -0.00006631    0.00003559    0.00003704
     atom   40 type  1   force =     0.00396598    0.00273552    0.00273738
     atom   41 type  1   force =     0.00051670   -0.00014767    0.00007333
     atom   42 type  1   force =     0.00395377   -0.00274660   -0.00272588
     atom   43 type  1   force =     0.00055703   -0.00014017   -0.00014439
     atom   44 type  1   force =    -0.00006001   -0.00004596   -0.00005791
     atom   45 type  1   force =     0.00055553    0.00008760    0.00008899
     atom   46 type  1   force =    -0.00005820   -0.00003918   -0.00002994
     atom   47 type  1   force =     0.00050506    0.00007977   -0.00013890
     atom   48 type  1   force =     0.00025694   -0.00001921   -0.00003835
     atom   49 type  1   force =    -0.00010000   -0.00002553    0.00012813
     atom   50 type  1   force =    -0.00001600   -0.00001834   -0.00004696
     atom   51 type  1   force =     0.00360670   -0.00240176    0.00228529
     atom   52 type  1   force =    -0.00024689    0.00007802    0.00026694
     atom   53 type  1   force =     0.00021030   -0.00003859   -0.00004948
     atom   54 type  1   force =    -0.00006438   -0.00003956    0.00010655
     atom   55 type  1   force =    -0.00028675   -0.00016069    0.00026106
     atom   56 type  1   force =    -0.00020898   -0.00014345   -0.00020293
     atom   57 type  1   force =    -0.00028786    0.00027527   -0.00014496
     atom   58 type  1   force =    -0.00020898   -0.00020083   -0.00014273
     atom   59 type  1   force =     0.00002284   -0.00019689    0.00008321
     atom   60 type  1   force =    -0.00025558    0.00026094    0.00008272
     atom   61 type  1   force =     0.00379658    0.00243292   -0.00252181
     atom   62 type  1   force =    -0.00005493    0.00011288   -0.00004445
     atom   63 type  1   force =    -0.00010011    0.00011400   -0.00004094
     atom   64 type  1   force =    -0.00001733   -0.00004908   -0.00001912

     Total force =     0.027322     Total SCF correction =     0.000127

     Writing output data file pwscf.save/

     General routines

     Parallel routines

   This run was terminated on:  15:42:40  14Feb2020

   JOB DONE.