     Program PWSCF v.6.3MaX starts on 14Feb2020 at  8:46:30

     R & G space division:  proc/nbgrp/npool/nimage =       2
     Waiting for input...
     Reading input from standard input

     Current dimensions of program PWSCF are:
     Max number of different atomic species (ntypx) = 10
     Max number of k-points (npk) =  40000
     Max angular momentum in pseudopotentials (lmaxx) =  3

     Subspace diagonalization in iterative solution of the eigenvalue problem:
     a serial algorithm will be used

     Message from routine find_sym:
     Not a group! Trying with lower acceptance parameter...
     Message from routine find_sym:
     Still not a group! symmetry disabled

     bravais-lattice index     =            0
     lattice parameter (alat)  =      20.6591  a.u.
     unit-cell volume          =    8817.2783 (a.u.)^3
     number of atoms/cell      =           64
     number of atomic types    =            1
     number of electrons       =       256.00
     number of Kohn-Sham states=          154
     kinetic-energy cutoff     =      50.0000  Ry
     charge density cutoff     =     200.0000  Ry
     convergence threshold     =      1.0E-08
     mixing beta               =       0.7000
     number of iterations used =            8  plain     mixing
     Exchange-correlation      = PBE ( 1  4  3  4 0 0)

     celldm(1)=  20.659106  celldm(2)=   0.000000  celldm(3)=   0.000000
     celldm(4)=   0.000000  celldm(5)=   0.000000  celldm(6)=   0.000000

     crystal axes: (cart. coord. in units of alat)
               a(1) = (   1.000000   0.000000   0.000000 )
               a(2) = (   0.000000   1.000000   0.000000 )
               a(3) = (   0.000000   0.000000   1.000000 )

     reciprocal axes: (cart. coord. in units 2 pi/alat)
               b(1) = (  1.000000  0.000000  0.000000 )
               b(2) = (  0.000000  1.000000  0.000000 )
               b(3) = (  0.000000  0.000000  1.000000 )

     PseudoPot. # 1 for Si read from file:
     ~/kedar/softwares/SSSP_precision_pseudos/Si.pbe-n-rrkjus_psl.1.0.0.UPF
     MD5 check sum: Not computed, couldn't open file
     Pseudo is Ultrasoft + core correction, Zval =  4.0
     Generated using "atomic" code by A. Dal Corso v.5.1
     Using radial grid of 1141 points,  6 beta functions with:
                l(1) =   0
                l(2) =   0
                l(3) =   1
                l(4) =   1
                l(5) =   2
                l(6) =   2
     Q(r) pseudized with 0 coefficients

     atomic species   valence    mass     pseudopotential
        Si             4.00    28.08550     Si( 1.00)

     No symmetry found

   Cartesian axes

     site n.     atom                  positions (alat units)
         1           Si  tau(   1) = (   0.4404043   0.4375000   0.4375000  )
         2           Si  tau(   2) = (   0.9375000   0.4375000   0.4375000  )
         3           Si  tau(   3) = (   0.4375000   0.9375000   0.4375000  )
         4           Si  tau(   4) = (   0.9375000   0.9375000   0.4375000  )
         5           Si  tau(   5) = (   0.4375000   0.4375000   0.9375000  )
         6           Si  tau(   6) = (   0.9375000   0.4375000   0.9375000  )
         7           Si  tau(   7) = (   0.4375000   0.9375000   0.9375000  )
         8           Si  tau(   8) = (   0.9375000   0.9375000   0.9375000  )
         9           Si  tau(   9) = (   0.4375000   0.1875000   0.1875000  )
        10           Si  tau(  10) = (   0.9375000   0.1875000   0.1875000  )
        11           Si  tau(  11) = (   0.4375000   0.6875000   0.1875000  )
        12           Si  tau(  12) = (   0.9404043   0.6875000   0.1875000  )
        13           Si  tau(  13) = (   0.4375000   0.1875000   0.6875000  )
        14           Si  tau(  14) = (   0.9375000   0.1875000   0.6875000  )
        15           Si  tau(  15) = (   0.4375000   0.6875000   0.6875000  )
        16           Si  tau(  16) = (   0.9375000   0.6875000   0.6875000  )
        17           Si  tau(  17) = (   0.1875000   0.4375000   0.1875000  )
        18           Si  tau(  18) = (   0.6875000   0.4375000   0.1875000  )
        19           Si  tau(  19) = (   0.1875000   0.9375000   0.1875000  )
        20           Si  tau(  20) = (   0.6875000   0.9375000   0.1875000  )
        21           Si  tau(  21) = (   0.1875000   0.4375000   0.6875000  )
        22           Si  tau(  22) = (   0.6875000   0.4375000   0.6875000  )
        23           Si  tau(  23) = (   0.1875000   0.9375000   0.6875000  )
        24           Si  tau(  24) = (   0.6875000   0.9375000   0.6875000  )
        25           Si  tau(  25) = (   0.1875000   0.1875000   0.4375000  )
        26           Si  tau(  26) = (   0.6875000   0.1875000   0.4375000  )
        27           Si  tau(  27) = (   0.1875000   0.6875000   0.4375000  )
        28           Si  tau(  28) = (   0.6875000   0.6875000   0.4375000  )
        29           Si  tau(  29) = (   0.1875000   0.1875000   0.9375000  )
        30           Si  tau(  30) = (   0.6875000   0.1875000   0.9375000  )
        31           Si  tau(  31) = (   0.1875000   0.6875000   0.9375000  )
        32           Si  tau(  32) = (   0.6875000   0.6875000   0.9375000  )
        33           Si  tau(  33) = (   0.0625000   0.0625000   0.0625000  )
        34           Si  tau(  34) = (   0.5625000   0.0625000   0.0625000  )
        35           Si  tau(  35) = (   0.0625000   0.5625000   0.0625000  )
        36           Si  tau(  36) = (   0.5625000   0.5625000   0.0625000  )
        37           Si  tau(  37) = (   0.0625000   0.0625000   0.5625000  )
        38           Si  tau(  38) = (   0.5625000   0.0625000   0.5625000  )
        39           Si  tau(  39) = (   0.0625000   0.5625000   0.5625000  )
        40           Si  tau(  40) = (   0.5625000   0.5625000   0.5625000  )
        41           Si  tau(  41) = (   0.0625000   0.3125000   0.3125000  )
        42           Si  tau(  42) = (   0.5625000   0.3125000   0.3125000  )
        43           Si  tau(  43) = (   0.0625000   0.8125000   0.3125000  )
        44           Si  tau(  44) = (   0.5625000   0.8125000   0.3125000  )
        45           Si  tau(  45) = (   0.0625000   0.3125000   0.8125000  )
        46           Si  tau(  46) = (   0.5625000   0.3125000   0.8125000  )
        47           Si  tau(  47) = (   0.0625000   0.8125000   0.8125000  )
        48           Si  tau(  48) = (   0.5625000   0.8125000   0.8125000  )
        49           Si  tau(  49) = (   0.3125000   0.0625000   0.3125000  )
        50           Si  tau(  50) = (   0.8125000   0.0625000   0.3125000  )
        51           Si  tau(  51) = (   0.3125000   0.5625000   0.3125000  )
        52           Si  tau(  52) = (   0.8125000   0.5625000   0.3125000  )
        53           Si  tau(  53) = (   0.3125000   0.0625000   0.8125000  )
        54           Si  tau(  54) = (   0.8125000   0.0625000   0.8125000  )
        55           Si  tau(  55) = (   0.3125000   0.5625000   0.8125000  )
        56           Si  tau(  56) = (   0.8125000   0.5625000   0.8125000  )
        57           Si  tau(  57) = (   0.3125000   0.3125000   0.0625000  )
        58           Si  tau(  58) = (   0.8125000   0.3125000   0.0625000  )
        59           Si  tau(  59) = (   0.3125000   0.8125000   0.0625000  )
        60           Si  tau(  60) = (   0.8125000   0.8125000   0.0625000  )
        61           Si  tau(  61) = (   0.3125000   0.3125000   0.5625000  )
        62           Si  tau(  62) = (   0.8125000   0.3125000   0.5625000  )
        63           Si  tau(  63) = (   0.3125000   0.8125000   0.5625000  )
        64           Si  tau(  64) = (   0.8125000   0.8125000   0.5625000  )

     number of k points=     4  gaussian smearing, width (Ry)=  0.0100
                       cart. coord. in units 2pi/alat
        k(    1) = (   0.2500000   0.2500000   0.2500000), wk =   0.5000000
        k(    2) = (   0.2500000  -0.2500000  -0.2500000), wk =   0.5000000
        k(    3) = (   0.2500000   0.2500000  -0.2500000), wk =   0.5000000
        k(    4) = (   0.2500000  -0.2500000   0.2500000), wk =   0.5000000

     Check: negative/imaginary core charge=   -0.000001    0.000000

     Initial potential from superposition of free atoms

     starting charge  255.96421, renormalised to  256.00000
     Starting wfcs are  256 randomized atomic wfcs

     Self-consistent Calculation

     iteration #  1     ecut=    50.00 Ry     beta= 0.70
     Davidson diagonalization with overlap
     ethr =  1.00E-02,  avg # of iterations =  3.0

     Threshold (ethr) on eigenvalues was too large:
     Diagonalizing with lowered threshold

     Davidson diagonalization with overlap
     ethr =  6.78E-04,  avg # of iterations =  2.0

     total energy              =    -730.80280260 Ry
     Harris-Foulkes estimate   =    -731.20887421 Ry
     estimated scf accuracy    <       1.72039016 Ry

[...]

     total energy              =    -730.88002565 Ry
     Harris-Foulkes estimate   =    -730.88002566 Ry
     estimated scf accuracy    <       0.00000002 Ry

     iteration # 12     ecut=    50.00 Ry     beta= 0.70
     Davidson diagonalization with overlap
     ethr =  8.62E-12,  avg # of iterations =  2.0

     End of self-consistent calculation

          k = 0.2500 0.2500 0.2500 ( 52563 PWs)   bands (ev):

    -5.6274  -5.1026  -5.0996  -5.0962  -4.6031  -4.6006  -4.5969  -4.1662
    -4.0704  -4.0670  -4.0634  -3.6618  -3.6563  -3.6515  -3.6496  -3.6463
    -3.6458  -3.4664  -3.4574  -3.4564  -2.9653  -2.9620  -2.9575  -2.5991
    -2.5936  -2.5914  -2.4361  -2.4301  -2.4265  -2.4241  -2.4209  -2.4202
    -0.8910  -0.8893  -0.8840  -0.8822  -0.8786  -0.8777  -0.7868  -0.7868
    -0.7826  -0.6724  -0.6664  -0.6600  -0.5918  -0.5856  -0.5817   0.1164
     0.1997   0.2005   0.2048   0.2067   0.2106   0.2144   1.0745   1.0757
     1.0797   1.4064   1.4146   1.4149   2.0164   2.0213   2.0224   2.0225
     2.0260   2.0269   2.0795   2.0838   2.0850   2.6297   2.6311   2.6331
     2.7324   2.7330   2.7356   2.7378   2.7434   2.7448   2.7876   2.7942
     2.7949   3.0955   3.0964   3.1001   3.1011   3.1030   3.1065   3.3631
     3.3666   3.3679   3.3753   3.3829   3.3839   3.7237   3.7251   3.7281
     3.7424   3.7473   3.7505   3.8316   3.8322   3.8369   4.0932   4.1043
     4.1054   4.1064   4.1079   4.1092   4.1458   4.1465   4.1519   4.4023
     4.4639   4.4663   4.4687   4.7067   4.7076   4.7136   4.7641   4.7669
     4.7710   4.9255   4.9358   5.2359   5.2373   5.2447   5.7138   5.7253
     6.9266   6.9343   6.9350   7.3686   7.3701   7.3752   7.5982   7.8554
     7.8561   7.8623   7.9816   7.9822   7.9900   8.1430   8.1447   8.1477
     8.1616   8.1668   8.1692   8.3910   8.3910   8.3926   8.3955   8.3983
     8.4010   8.4469

[...]

          k = 0.2500-0.2500 0.2500 ( 52563 PWs)   bands (ev):

    -5.6275  -5.1018  -5.1008  -5.0951  -4.6030  -4.6018  -4.5962  -4.1681
    -4.0705  -4.0689  -4.0637  -3.6553  -3.6534  -3.6531  -3.6518  -3.6500
    -3.6418  -3.4624  -3.4614  -3.4522  -2.9694  -2.9654  -2.9613  -2.5972
    -2.5949  -2.5899  -2.4309  -2.4290  -2.4283  -2.4267  -2.4251  -2.4142
    -0.8915  -0.8899  -0.8868  -0.8844  -0.8837  -0.8721  -0.7904  -0.7866
    -0.7850  -0.6753  -0.6700  -0.6636  -0.5844  -0.5797  -0.5690   0.1238
     0.1961   0.1976   0.2018   0.2043   0.2051   0.2136   1.0755   1.0794
     1.0895   1.4081   1.4104   1.4174   2.0169   2.0209   2.0214   2.0219
     2.0240   2.0284   2.0785   2.0790   2.0842   2.6336   2.6354   2.6367
     2.7299   2.7310   2.7345   2.7358   2.7387   2.7396   2.7846   2.7875
     2.7926   3.0956   3.0984   3.0994   3.1003   3.1014   3.1095   3.3607
     3.3634   3.3659   3.3756   3.3758   3.3833   3.7265   3.7281   3.7341
     3.7487   3.7527   3.7579   3.8271   3.8313   3.8355   4.1045   4.1059
     4.1069   4.1092   4.1119   4.1206   4.1406   4.1451   4.1507   4.4111
     4.4584   4.4615   4.4646   4.7009   4.7060   4.7087   4.7719   4.7742
     4.7853   4.9229   4.9331   5.2278   5.2347   5.2390   5.7091   5.7204
     6.9257   6.9259   6.9340   7.3638   7.3696   7.3759   7.5952   7.8494
     7.8540   7.8604   7.9818   7.9903   7.9903   8.1401   8.1453   8.1478
     8.1614   8.1630   8.1683   8.3905   8.3959   8.3964   8.3980   8.4026
     8.4075   8.4422

     the Fermi energy is     6.3206 ev

!    total energy              =    -730.88002565 Ry
     Harris-Foulkes estimate   =    -730.88002565 Ry
     estimated scf accuracy    <          1.6E-09 Ry

     The total energy is the sum of the following terms:

     one-electron contribution =     160.47313334 Ry
     hartree contribution      =      35.78722051 Ry
     xc contribution           =    -393.13399610 Ry
     ewald contribution        =    -534.00638340 Ry
     smearing contrib. (-TS)   =      -0.00000000 Ry

     convergence has been achieved in  12 iterations

     Forces acting on atoms (cartesian axes, Ry/au):

     atom    1 type  1   force =    -0.01605086   -0.00000880    0.00000950
     atom    2 type  1   force =    -0.00050226   -0.00010986    0.00011039
     atom    3 type  1   force =     0.00005710   -0.00001004   -0.00000926
     atom    4 type  1   force =    -0.00053668   -0.00011444   -0.00011390
     atom    5 type  1   force =     0.00005718    0.00000936    0.00000919
     atom    6 type  1   force =    -0.00053672    0.00011402    0.00011432
     atom    7 type  1   force =    -0.00047316    0.00000890   -0.00000901
     atom    8 type  1   force =    -0.00050035    0.00011016   -0.00011025
     atom    9 type  1   force =    -0.00053710    0.00011403    0.00011395
     atom   10 type  1   force =     0.00005665    0.00000933    0.00000877
     atom   11 type  1   force =    -0.00050126    0.00011029   -0.00010944
     atom   12 type  1   force =    -0.01605173    0.00000980   -0.00000985
     atom   13 type  1   force =    -0.00050034   -0.00010957    0.00010993
     atom   14 type  1   force =    -0.00047295   -0.00000969    0.00000987
     atom   15 type  1   force =    -0.00053653   -0.00011405   -0.00011453
     atom   16 type  1   force =     0.00005621   -0.00000881   -0.00000919
     atom   17 type  1   force =     0.00046895   -0.00034026    0.00011015
     atom   18 type  1   force =     0.00046838    0.00011051   -0.00033911
     atom   19 type  1   force =     0.00028219    0.00022119    0.00003817
     atom   20 type  1   force =     0.00027473   -0.00023375    0.00018552
     atom   21 type  1   force =     0.00027510    0.00018602   -0.00023390
     atom   22 type  1   force =     0.00028189    0.00003893    0.00022059
     atom   23 type  1   force =     0.00008731   -0.00006662    0.00008602
     atom   24 type  1   force =     0.00008784    0.00008480   -0.00006655
     atom   25 type  1   force =     0.00027467    0.00023362   -0.00018605
     atom   26 type  1   force =     0.00028168   -0.00022102   -0.00003833
     atom   27 type  1   force =     0.00046946   -0.00010988    0.00034023
     atom   28 type  1   force =     0.00046816    0.00033957   -0.00010994
     atom   29 type  1   force =     0.00008735   -0.00008656    0.00006663
     atom   30 type  1   force =     0.00008810    0.00006593   -0.00008558
     atom   31 type  1   force =     0.00028180   -0.00003791   -0.00022135
     atom   32 type  1   force =     0.00027478   -0.00018515    0.00023305
     atom   33 type  1   force =    -0.00007852   -0.00000650   -0.00001871
     atom   34 type  1   force =     0.00028546    0.00000266    0.00000147
     atom   35 type  1   force =     0.00398434   -0.00270923   -0.00271155
     atom   36 type  1   force =    -0.00006891    0.00001205    0.00000078
     atom   37 type  1   force =     0.00028496   -0.00000363   -0.00000089
     atom   38 type  1   force =    -0.00007857    0.00000596    0.00001781
     atom   39 type  1   force =    -0.00006896   -0.00001174   -0.00000012
     atom   40 type  1   force =     0.00398483    0.00270986    0.00271089
     atom   41 type  1   force =    -0.00006867    0.00000016    0.00001184
     atom   42 type  1   force =     0.00398483   -0.00271048   -0.00270929
     atom   43 type  1   force =     0.00398468    0.00271174    0.00270959
     atom   44 type  1   force =    -0.00006917   -0.00000078   -0.00001155
     atom   45 type  1   force =     0.00028476    0.00000060    0.00000338
     atom   46 type  1   force =    -0.00007886   -0.00001783   -0.00000670
     atom   47 type  1   force =    -0.00007868    0.00001855    0.00000647
     atom   48 type  1   force =     0.00028545   -0.00000166   -0.00000350
     atom   49 type  1   force =    -0.00002856   -0.00001026    0.00002056
     atom   50 type  1   force =    -0.00002867    0.00000947   -0.00002139
     atom   51 type  1   force =     0.00382985   -0.00247309    0.00247385
     atom   52 type  1   force =     0.00382810    0.00247327   -0.00247308
     atom   53 type  1   force =     0.00023461    0.00000253   -0.00000248
     atom   54 type  1   force =     0.00023557   -0.00000318    0.00000323
     atom   55 type  1   force =    -0.00002816   -0.00002056    0.00000955
     atom   56 type  1   force =    -0.00002866    0.00002175   -0.00001054
     atom   57 type  1   force =    -0.00002819    0.00002338   -0.00000679
     atom   58 type  1   force =    -0.00002790   -0.00000769    0.00002381
     atom   59 type  1   force =     0.00024602   -0.00000859    0.00000889
     atom   60 type  1   force =     0.00381882   -0.00247927    0.00247965
     atom   61 type  1   force =     0.00381922    0.00248011   -0.00247965
     atom   62 type  1   force =     0.00024560    0.00000962   -0.00000930
     atom   63 type  1   force =    -0.00002776    0.00000682   -0.00002407
     atom   64 type  1   force =    -0.00002846   -0.00002411    0.00000778

     Total force =     0.027408     Total SCF correction =     0.000068

     Writing output data file pwscf.save/

     General routines

     Parallel routines

   This run was terminated on:   9:28:21  14Feb2020

   JOB DONE.