     Program PWSCF v.6.3MaX starts on 14Feb2020 at 13:22:54

     R & G space division:  proc/nbgrp/npool/nimage =       2
     Waiting for input...
     Reading input from standard input

     Current dimensions of program PWSCF are:
     Max number of different atomic species (ntypx) = 10
     Max number of k-points (npk) =  40000
     Max angular momentum in pseudopotentials (lmaxx) =  3

     Subspace diagonalization in iterative solution of the eigenvalue problem:
     a serial algorithm will be used

     bravais-lattice index     =            0
     lattice parameter (alat)  =      20.6591  a.u.
     unit-cell volume          =    8817.2783 (a.u.)^3
     number of atoms/cell      =           64
     number of atomic types    =            1
     number of electrons       =       256.00
     number of Kohn-Sham states=          154
     kinetic-energy cutoff     =      50.0000  Ry
     charge density cutoff     =     200.0000  Ry
     convergence threshold     =      1.0E-08
     mixing beta               =       0.7000
     number of iterations used =            8  plain     mixing
     Exchange-correlation      = PBE ( 1  4  3  4 0 0)

     celldm(1)=  20.659106  celldm(2)=   0.000000  celldm(3)=   0.000000
     celldm(4)=   0.000000  celldm(5)=   0.000000  celldm(6)=   0.000000

     crystal axes: (cart. coord. in units of alat)
               a(1) = (   1.000000   0.000000   0.000000 )
               a(2) = (   0.000000   1.000000   0.000000 )
               a(3) = (   0.000000   0.000000   1.000000 )

     reciprocal axes: (cart. coord. in units 2 pi/alat)
               b(1) = (  1.000000  0.000000  0.000000 )
               b(2) = (  0.000000  1.000000  0.000000 )
               b(3) = (  0.000000  0.000000  1.000000 )

     PseudoPot. # 1 for Si read from file:
     ~/kedar/softwares/SSSP_precision_pseudos/Si.pbe-n-rrkjus_psl.1.0.0.UPF
     MD5 check sum: Not computed, couldn't open file
     Pseudo is Ultrasoft + core correction, Zval =  4.0
     Generated using "atomic" code by A. Dal Corso v.5.1
     Using radial grid of 1141 points,  6 beta functions with:
                l(1) =   0
                l(2) =   0
                l(3) =   1
                l(4) =   1
                l(5) =   2
                l(6) =   2
     Q(r) pseudized with 0 coefficients

     atomic species   valence    mass     pseudopotential
        Si             4.00    28.08550     Si( 1.00)

     No symmetry found

   Cartesian axes

     site n.     atom                  positions (alat units)
         1           Si  tau(   1) = (   0.4404043   0.4375000   0.4375000  )
         2           Si  tau(   2) = (   0.9375000   0.4375000   0.4375000  )
         3           Si  tau(   3) = (   0.4375000   0.9375000   0.4375000  )
         4           Si  tau(   4) = (   0.9375000   0.9375000   0.4375000  )
         5           Si  tau(   5) = (   0.4375000   0.4375000   0.9375000  )
         6           Si  tau(   6) = (   0.9375000   0.4375000   0.9375000  )
         7           Si  tau(   7) = (   0.4375000   0.9375000   0.9375000  )
         8           Si  tau(   8) = (   0.9375000   0.9375000   0.9375000  )
         9           Si  tau(   9) = (   0.4375000   0.1875000   0.1875000  )
        10           Si  tau(  10) = (   0.9375000   0.1875000   0.1875000  )
        11           Si  tau(  11) = (   0.4375000   0.6875000   0.1875000  )
        12           Si  tau(  12) = (   0.9375000   0.6875000   0.1875000  )
        13           Si  tau(  13) = (   0.4375000   0.1875000   0.6875000  )
        14           Si  tau(  14) = (   0.9375000   0.1875000   0.6875000  )
        15           Si  tau(  15) = (   0.4375000   0.6875000   0.6875000  )
        16           Si  tau(  16) = (   0.9375000   0.6875000   0.6875000  )
        17           Si  tau(  17) = (   0.1875000   0.4375000   0.1875000  )
        18           Si  tau(  18) = (   0.6875000   0.4375000   0.1875000  )
        19           Si  tau(  19) = (   0.1875000   0.9375000   0.1875000  )
        20           Si  tau(  20) = (   0.6875000   0.9345957   0.1875000  )
        21           Si  tau(  21) = (   0.1875000   0.4375000   0.6875000  )
        22           Si  tau(  22) = (   0.6875000   0.4375000   0.6875000  )
        23           Si  tau(  23) = (   0.1875000   0.9375000   0.6875000  )
        24           Si  tau(  24) = (   0.6875000   0.9375000   0.6875000  )
        25           Si  tau(  25) = (   0.1875000   0.1875000   0.4375000  )
        26           Si  tau(  26) = (   0.6875000   0.1875000   0.4375000  )
        27           Si  tau(  27) = (   0.1875000   0.6875000   0.4375000  )
        28           Si  tau(  28) = (   0.6875000   0.6875000   0.4375000  )
        29           Si  tau(  29) = (   0.1875000   0.1875000   0.9375000  )
        30           Si  tau(  30) = (   0.6875000   0.1875000   0.9375000  )
        31           Si  tau(  31) = (   0.1875000   0.6875000   0.9375000  )
        32           Si  tau(  32) = (   0.6875000   0.6875000   0.9375000  )
        33           Si  tau(  33) = (   0.0625000   0.0625000   0.0625000  )
        34           Si  tau(  34) = (   0.5625000   0.0625000   0.0625000  )
        35           Si  tau(  35) = (   0.0625000   0.5625000   0.0625000  )
        36           Si  tau(  36) = (   0.5625000   0.5625000   0.0625000  )
        37           Si  tau(  37) = (   0.0625000   0.0625000   0.5625000  )
        38           Si  tau(  38) = (   0.5625000   0.0625000   0.5625000  )
        39           Si  tau(  39) = (   0.0625000   0.5625000   0.5625000  )
        40           Si  tau(  40) = (   0.5625000   0.5625000   0.5625000  )
        41           Si  tau(  41) = (   0.0625000   0.3125000   0.3125000  )
        42           Si  tau(  42) = (   0.5625000   0.3125000   0.3125000  )
        43           Si  tau(  43) = (   0.0625000   0.8125000   0.3125000  )
        44           Si  tau(  44) = (   0.5625000   0.8125000   0.3125000  )
        45           Si  tau(  45) = (   0.0625000   0.3125000   0.8125000  )
        46           Si  tau(  46) = (   0.5625000   0.3125000   0.8125000  )
        47           Si  tau(  47) = (   0.0625000   0.8125000   0.8125000  )
        48           Si  tau(  48) = (   0.5625000   0.8125000   0.8125000  )
        49           Si  tau(  49) = (   0.3125000   0.0625000   0.3125000  )
        50           Si  tau(  50) = (   0.8125000   0.0625000   0.3125000  )
        51           Si  tau(  51) = (   0.3125000   0.5625000   0.3125000  )
        52           Si  tau(  52) = (   0.8125000   0.5625000   0.3125000  )
        53           Si  tau(  53) = (   0.3125000   0.0625000   0.8125000  )
        54           Si  tau(  54) = (   0.8125000   0.0625000   0.8125000  )
        55           Si  tau(  55) = (   0.3125000   0.5625000   0.8125000  )
        56           Si  tau(  56) = (   0.8125000   0.5625000   0.8125000  )
        57           Si  tau(  57) = (   0.3125000   0.3125000   0.0625000  )
        58           Si  tau(  58) = (   0.8125000   0.3125000   0.0625000  )
        59           Si  tau(  59) = (   0.3125000   0.8125000   0.0625000  )
        60           Si  tau(  60) = (   0.8125000   0.8125000   0.0625000  )
        61           Si  tau(  61) = (   0.3125000   0.3125000   0.5625000  )
        62           Si  tau(  62) = (   0.8125000   0.3125000   0.5625000  )
        63           Si  tau(  63) = (   0.3125000   0.8125000   0.5625000  )
        64           Si  tau(  64) = (   0.8125000   0.8125000   0.5625000  )

     number of k points=     4  gaussian smearing, width (Ry)=  0.0100
                       cart. coord. in units 2pi/alat
        k(    1) = (   0.2500000   0.2500000   0.2500000), wk =   0.5000000
        k(    2) = (  -0.2500000  -0.2500000   0.2500000), wk =   0.5000000
        k(    3) = (  -0.2500000   0.2500000  -0.2500000), wk =   0.5000000
        k(    4) = (   0.2500000  -0.2500000  -0.2500000), wk =   0.5000000

     Check: negative/imaginary core charge=   -0.000001    0.000000

     Initial potential from superposition of free atoms

     starting charge  255.96421, renormalised to  256.00000
     Starting wfcs are  256 randomized atomic wfcs

     Self-consistent Calculation

     iteration #  1     ecut=    50.00 Ry     beta= 0.70
     Davidson diagonalization with overlap
     ethr =  1.00E-02,  avg # of iterations =  3.0

     Threshold (ethr) on eigenvalues was too large:
     Diagonalizing with lowered threshold

     Davidson diagonalization with overlap
     ethr =  6.78E-04,  avg # of iterations =  2.0

     total energy              =    -730.80281262 Ry
     Harris-Foulkes estimate   =    -731.20891045 Ry
     estimated scf accuracy    <       1.72046524 Ry

[...]

     total energy              =    -730.88002613 Ry
     Harris-Foulkes estimate   =    -730.88002614 Ry
     estimated scf accuracy    <       0.00000001 Ry

     iteration # 12     ecut=    50.00 Ry     beta= 0.70
     Davidson diagonalization with overlap
     ethr =  4.87E-12,  avg # of iterations =  3.0

     End of self-consistent calculation

          k = 0.2500 0.2500 0.2500 ( 52563 PWs)   bands (ev):

    -5.6275  -5.1020  -5.1000  -5.0960  -4.6026  -4.6010  -4.5972  -4.1670
    -4.0698  -4.0682  -4.0640  -3.6605  -3.6535  -3.6514  -3.6511  -3.6484
    -3.6437  -3.4634  -3.4594  -3.4551  -2.9657  -2.9642  -2.9604  -2.5982
    -2.5943  -2.5907  -2.4348  -2.4281  -2.4260  -2.4256  -2.4238  -2.4176
    -0.8936  -0.8871  -0.8843  -0.8834  -0.8812  -0.8756  -0.7898  -0.7864
    -0.7829  -0.6733  -0.6682  -0.6626  -0.5900  -0.5816  -0.5746   0.1202
     0.1965   0.2009   0.2040   0.2055   0.2086   0.2121   1.0728   1.0792
     1.0852   1.4076   1.4120   1.4162   2.0178   2.0199   2.0216   2.0235
     2.0243   2.0276   2.0785   2.0818   2.0846   2.6308   2.6334   2.6356
     2.7308   2.7336   2.7351   2.7376   2.7393   2.7418   2.7858   2.7897
     2.7952   3.0949   3.0988   3.1003   3.1007   3.1023   3.1067   3.3623
     3.3643   3.3668   3.3756   3.3799   3.3833   3.7242   3.7283   3.7306
     3.7461   3.7495   3.7541   3.8296   3.8330   3.8347   4.0987   4.1052
     4.1066   4.1073   4.1093   4.1157   4.1434   4.1473   4.1495   4.4065
     4.4605   4.4638   4.4676   4.7042   4.7077   4.7100   4.7661   4.7721
     4.7785   4.9249   4.9336   5.2322   5.2372   5.2404   5.7122   5.7221
     6.9271   6.9296   6.9341   7.3650   7.3720   7.3745   7.5967   7.8511
     7.8575   7.8602   7.9822   7.9860   7.9899   8.1405   8.1454   8.1480
     8.1621   8.1638   8.1694   8.3911   8.3926   8.3957   8.3983   8.4003
     8.4031   8.4441

          k =-0.2500-0.2500 0.2500 ( 52563 PWs)   bands (ev):

[...]

          k =-0.2500 0.2500-0.2500 ( 52563 PWs)   bands (ev):

[...]

          k = 0.2500-0.2500-0.2500 ( 52563 PWs)   bands (ev):

    -5.6274  -5.1023  -5.0997  -5.0964  -4.6030  -4.6004  -4.5972  -4.1660
    -4.0701  -4.0673  -4.0635  -3.6614  -3.6554  -3.6508  -3.6498  -3.6485
    -3.6456  -3.4646  -3.4589  -3.4566  -2.9656  -2.9624  -2.9567  -2.6007
    -2.5927  -2.5909  -2.4341  -2.4305  -2.4255  -2.4242  -2.4225  -2.4211
    -0.8917  -0.8876  -0.8835  -0.8817  -0.8803  -0.8776  -0.7913  -0.7837
    -0.7815  -0.6701  -0.6673  -0.6615  -0.5939  -0.5842  -0.5808   0.1164
     0.1972   0.2032   0.2047   0.2075   0.2098   0.2142   1.0694   1.0788
     1.0816   1.4084   1.4125   1.4152   2.0183   2.0207   2.0219   2.0230
     2.0251   2.0264   2.0802   2.0826   2.0854   2.6285   2.6320   2.6334
     2.7319   2.7351   2.7367   2.7385   2.7408   2.7429   2.7895   2.7921
     2.7962   3.0952   3.0986   3.1001   3.1011   3.1017   3.1058   3.3642
     3.3664   3.3671   3.3776   3.3806   3.3837   3.7226   3.7256   3.7287
     3.7421   3.7483   3.7500   3.8316   3.8330   3.8362   4.0956   4.1010
     4.1055   4.1074   4.1078   4.1092   4.1457   4.1473   4.1508   4.4025
     4.4641   4.4669   4.4679   4.7070   4.7085   4.7125   4.7603   4.7701
     4.7716   4.9280   4.9330   5.2361   5.2386   5.2436   5.7167   5.7224
     6.9286   6.9326   6.9346   7.3671   7.3722   7.3746   7.5982   7.8541
     7.8589   7.8608   7.9814   7.9832   7.9893   8.1425   8.1442   8.1493
     8.1628   8.1664   8.1678   8.3884   8.3913   8.3946   8.3973   8.3981
     8.4002   8.4464

     the Fermi energy is     6.3202 ev

!    total energy              =    -730.88002613 Ry
     Harris-Foulkes estimate   =    -730.88002613 Ry
     estimated scf accuracy    <          4.6E-09 Ry

     The total energy is the sum of the following terms:

     one-electron contribution =     160.47282835 Ry
     hartree contribution      =      35.78737301 Ry
     xc contribution           =    -393.13399524 Ry
     ewald contribution        =    -534.00623225 Ry
     smearing contrib. (-TS)   =      -0.00000000 Ry

     convergence has been achieved in  12 iterations

     Forces acting on atoms (cartesian axes, Ry/au):

     atom    1 type  1   force =    -0.01604465   -0.00000291   -0.00000800
     atom    2 type  1   force =     0.00003412   -0.00000237    0.00000910
     atom    3 type  1   force =     0.00017084    0.00053077   -0.00011478
     atom    4 type  1   force =     0.00010218    0.00052629    0.00010941
     atom    5 type  1   force =     0.00004565   -0.00000237   -0.00001026
     atom    6 type  1   force =    -0.00001639   -0.00000113    0.00000889
     atom    7 type  1   force =    -0.00058597    0.00052628   -0.00011091
     atom    8 type  1   force =    -0.00008853    0.00052945    0.00011553
     atom    9 type  1   force =    -0.00030570   -0.00011717    0.00022507
     atom   10 type  1   force =    -0.00022306   -0.00022205   -0.00010075
     atom   11 type  1   force =    -0.00075718   -0.00012657    0.00000384
     atom   12 type  1   force =     0.00023353   -0.00022719   -0.00012413
     atom   13 type  1   force =    -0.00060037   -0.00015383    0.00011951
     atom   14 type  1   force =     0.00007756   -0.00005323   -0.00000052
     atom   15 type  1   force =    -0.00045321   -0.00015854   -0.00010451
     atom   16 type  1   force =    -0.00007518   -0.00005372   -0.00001807
     atom   17 type  1   force =     0.00023081   -0.00010238    0.00022491
     atom   18 type  1   force =     0.00023827   -0.00013943   -0.00023028
     atom   19 type  1   force =     0.00004330   -0.00006598   -0.00007756
     atom   20 type  1   force =     0.00004349    0.01604554    0.00007657
     atom   21 type  1   force =     0.00023087    0.00008385   -0.00022379
     atom   22 type  1   force =     0.00023675    0.00011992    0.00022937
     atom   23 type  1   force =     0.00004484    0.00048596    0.00007715
     atom   24 type  1   force =     0.00004357   -0.00004442   -0.00007618
     atom   25 type  1   force =     0.00022128    0.00018033   -0.00003356
     atom   26 type  1   force =     0.00012637   -0.00046122   -0.00033748
     atom   27 type  1   force =     0.00022105   -0.00026875    0.00003240
     atom   28 type  1   force =     0.00012351   -0.00000651    0.00034464
     atom   29 type  1   force =     0.00005414   -0.00012098   -0.00008606
     atom   30 type  1   force =     0.00015428   -0.00015583    0.00021358
     atom   31 type  1   force =     0.00005275    0.00003337    0.00008684
     atom   32 type  1   force =     0.00015869   -0.00031323   -0.00022084
     atom   33 type  1   force =     0.00001656    0.00008627    0.00008177
     atom   34 type  1   force =     0.00276930   -0.00381140    0.00253764
     atom   35 type  1   force =     0.00005364    0.00000015    0.00005509
     atom   36 type  1   force =    -0.00002208    0.00005933    0.00007355
     atom   37 type  1   force =     0.00005415   -0.00022941    0.00005438
     atom   38 type  1   force =    -0.00000695    0.00009576    0.00008612
     atom   39 type  1   force =     0.00001943    0.00005647    0.00006715
     atom   40 type  1   force =     0.00398816    0.00270654    0.00276441
     atom   41 type  1   force =    -0.00003552   -0.00006373   -0.00000971
     atom   42 type  1   force =     0.00392152   -0.00272768   -0.00269744
     atom   43 type  1   force =    -0.00001135    0.00003304    0.00002014
     atom   44 type  1   force =    -0.00279449   -0.00399441    0.00268747
     atom   45 type  1   force =    -0.00000413   -0.00000696    0.00000538
     atom   46 type  1   force =    -0.00008539   -0.00007691   -0.00001452
     atom   47 type  1   force =    -0.00004823   -0.00028929   -0.00000112
     atom   48 type  1   force =     0.00020920    0.00003129    0.00000945
     atom   49 type  1   force =    -0.00009277    0.00002047   -0.00000002
     atom   50 type  1   force =    -0.00248211   -0.00386748   -0.00248030
     atom   51 type  1   force =     0.00381085   -0.00253796    0.00247953
     atom   52 type  1   force =    -0.00004529   -0.00002670   -0.00000006
     atom   53 type  1   force =     0.00022827   -0.00028323    0.00000042
     atom   54 type  1   force =    -0.00007225    0.00002719   -0.00000644
     atom   55 type  1   force =    -0.00008677   -0.00003129    0.00000666
     atom   56 type  1   force =    -0.00000083   -0.00005788   -0.00000015
     atom   57 type  1   force =    -0.00003167    0.00002361   -0.00006384
     atom   58 type  1   force =     0.00006566    0.00003915   -0.00006410
     atom   59 type  1   force =     0.00029172    0.00008636   -0.00007619
     atom   60 type  1   force =     0.00271742   -0.00392716   -0.00276623
     atom   61 type  1   force =     0.00387147    0.00252945   -0.00254102
     atom   62 type  1   force =     0.00001564    0.00000905   -0.00006085
     atom   63 type  1   force =    -0.00002788   -0.00022083   -0.00007855
     atom   64 type  1   force =     0.00007708    0.00008626   -0.00006772

     Total force =     0.027454     Total SCF correction =     0.000123

     Writing output data file pwscf.save/

     General routines

     Parallel routines

   This run was terminated on:  13:55:24  14Feb2020

   JOB DONE.