     Program PWSCF v.6.3MaX starts on 14Feb2020 at 13:23: 6

     R & G space division:  proc/nbgrp/npool/nimage =       2
     Waiting for input...
     Reading input from standard input

     Current dimensions of program PWSCF are:
     Max number of different atomic species (ntypx) = 10
     Max number of k-points (npk) =  40000
     Max angular momentum in pseudopotentials (lmaxx) =  3

     Subspace diagonalization in iterative solution of the eigenvalue problem:
     a serial algorithm will be used

     bravais-lattice index     =            0
     lattice parameter (alat)  =      20.6591  a.u.
     unit-cell volume          =    8817.2783 (a.u.)^3
     number of atoms/cell      =           64
     number of atomic types    =            1
     number of electrons       =       256.00
     number of Kohn-Sham states=          154
     kinetic-energy cutoff     =      50.0000  Ry
     charge density cutoff     =     200.0000  Ry
     convergence threshold     =      1.0E-08
     mixing beta               =       0.7000
     number of iterations used =            8  plain     mixing
     Exchange-correlation      = PBE ( 1  4  3  4 0 0)

     celldm(1)=  20.659106  celldm(2)=   0.000000  celldm(3)=   0.000000
     celldm(4)=   0.000000  celldm(5)=   0.000000  celldm(6)=   0.000000

     crystal axes: (cart. coord. in units of alat)
               a(1) = (   1.000000   0.000000   0.000000 )
               a(2) = (   0.000000   1.000000   0.000000 )
               a(3) = (   0.000000   0.000000   1.000000 )

     reciprocal axes: (cart. coord. in units 2 pi/alat)
               b(1) = (  1.000000  0.000000  0.000000 )
               b(2) = (  0.000000  1.000000  0.000000 )
               b(3) = (  0.000000  0.000000  1.000000 )

     PseudoPot. # 1 for Si read from file:
     ~/kedar/softwares/SSSP_precision_pseudos/Si.pbe-n-rrkjus_psl.1.0.0.UPF
     MD5 check sum: Not computed, couldn't open file
     Pseudo is Ultrasoft + core correction, Zval =  4.0
     Generated using "atomic" code by A. Dal Corso v.5.1
     Using radial grid of 1141 points,  6 beta functions with:
                l(1) =   0
                l(2) =   0
                l(3) =   1
                l(4) =   1
                l(5) =   2
                l(6) =   2
     Q(r) pseudized with 0 coefficients

     atomic species   valence    mass     pseudopotential
        Si             4.00    28.08550     Si( 1.00)

      2 Sym. Ops. (no inversion) found ( 1 have fractional translation)

   Cartesian axes

     site n.     atom                  positions (alat units)
         1           Si  tau(   1) = (   0.4404043   0.4375000   0.4375000  )
         2           Si  tau(   2) = (   0.9375000   0.4375000   0.4375000  )
         3           Si  tau(   3) = (   0.4375000   0.9375000   0.4375000  )
         4           Si  tau(   4) = (   0.9375000   0.9375000   0.4375000  )
         5           Si  tau(   5) = (   0.4375000   0.4375000   0.9375000  )
         6           Si  tau(   6) = (   0.9375000   0.4375000   0.9375000  )
         7           Si  tau(   7) = (   0.4375000   0.9375000   0.9375000  )
         8           Si  tau(   8) = (   0.9375000   0.9375000   0.9375000  )
         9           Si  tau(   9) = (   0.4375000   0.1875000   0.1875000  )
        10           Si  tau(  10) = (   0.9375000   0.1875000   0.1875000  )
        11           Si  tau(  11) = (   0.4375000   0.6875000   0.1875000  )
        12           Si  tau(  12) = (   0.9375000   0.6875000   0.1875000  )
        13           Si  tau(  13) = (   0.4375000   0.1875000   0.6875000  )
        14           Si  tau(  14) = (   0.9375000   0.1875000   0.6875000  )
        15           Si  tau(  15) = (   0.4375000   0.6875000   0.6875000  )
        16           Si  tau(  16) = (   0.9375000   0.6875000   0.6875000  )
        17           Si  tau(  17) = (   0.1875000   0.4375000   0.1875000  )
        18           Si  tau(  18) = (   0.6875000   0.4375000   0.1875000  )
        19           Si  tau(  19) = (   0.1875000   0.9375000   0.1875000  )
        20           Si  tau(  20) = (   0.6875000   0.9375000   0.1904043  )
        21           Si  tau(  21) = (   0.1875000   0.4375000   0.6875000  )
        22           Si  tau(  22) = (   0.6875000   0.4375000   0.6875000  )
        23           Si  tau(  23) = (   0.1875000   0.9375000   0.6875000  )
        24           Si  tau(  24) = (   0.6875000   0.9375000   0.6875000  )
        25           Si  tau(  25) = (   0.1875000   0.1875000   0.4375000  )
        26           Si  tau(  26) = (   0.6875000   0.1875000   0.4375000  )
        27           Si  tau(  27) = (   0.1875000   0.6875000   0.4375000  )
        28           Si  tau(  28) = (   0.6875000   0.6875000   0.4375000  )
        29           Si  tau(  29) = (   0.1875000   0.1875000   0.9375000  )
        30           Si  tau(  30) = (   0.6875000   0.1875000   0.9375000  )
        31           Si  tau(  31) = (   0.1875000   0.6875000   0.9375000  )
        32           Si  tau(  32) = (   0.6875000   0.6875000   0.9375000  )
        33           Si  tau(  33) = (   0.0625000   0.0625000   0.0625000  )
        34           Si  tau(  34) = (   0.5625000   0.0625000   0.0625000  )
        35           Si  tau(  35) = (   0.0625000   0.5625000   0.0625000  )
        36           Si  tau(  36) = (   0.5625000   0.5625000   0.0625000  )
        37           Si  tau(  37) = (   0.0625000   0.0625000   0.5625000  )
        38           Si  tau(  38) = (   0.5625000   0.0625000   0.5625000  )
        39           Si  tau(  39) = (   0.0625000   0.5625000   0.5625000  )
        40           Si  tau(  40) = (   0.5625000   0.5625000   0.5625000  )
        41           Si  tau(  41) = (   0.0625000   0.3125000   0.3125000  )
        42           Si  tau(  42) = (   0.5625000   0.3125000   0.3125000  )
        43           Si  tau(  43) = (   0.0625000   0.8125000   0.3125000  )
        44           Si  tau(  44) = (   0.5625000   0.8125000   0.3125000  )
        45           Si  tau(  45) = (   0.0625000   0.3125000   0.8125000  )
        46           Si  tau(  46) = (   0.5625000   0.3125000   0.8125000  )
        47           Si  tau(  47) = (   0.0625000   0.8125000   0.8125000  )
        48           Si  tau(  48) = (   0.5625000   0.8125000   0.8125000  )
        49           Si  tau(  49) = (   0.3125000   0.0625000   0.3125000  )
        50           Si  tau(  50) = (   0.8125000   0.0625000   0.3125000  )
        51           Si  tau(  51) = (   0.3125000   0.5625000   0.3125000  )
        52           Si  tau(  52) = (   0.8125000   0.5625000   0.3125000  )
        53           Si  tau(  53) = (   0.3125000   0.0625000   0.8125000  )
        54           Si  tau(  54) = (   0.8125000   0.0625000   0.8125000  )
        55           Si  tau(  55) = (   0.3125000   0.5625000   0.8125000  )
        56           Si  tau(  56) = (   0.8125000   0.5625000   0.8125000  )
        57           Si  tau(  57) = (   0.3125000   0.3125000   0.0625000  )
        58           Si  tau(  58) = (   0.8125000   0.3125000   0.0625000  )
        59           Si  tau(  59) = (   0.3125000   0.8125000   0.0625000  )
        60           Si  tau(  60) = (   0.8125000   0.8125000   0.0625000  )
        61           Si  tau(  61) = (   0.3125000   0.3125000   0.5625000  )
        62           Si  tau(  62) = (   0.8125000   0.3125000   0.5625000  )
        63           Si  tau(  63) = (   0.3125000   0.8125000   0.5625000  )
        64           Si  tau(  64) = (   0.8125000   0.8125000   0.5625000  )

     number of k points=     3  gaussian smearing, width (Ry)=  0.0100
                       cart. coord. in units 2pi/alat
        k(    1) = (   0.2500000   0.2500000   0.2500000), wk =   0.5000000
        k(    2) = (  -0.2500000   0.2500000  -0.2500000), wk =   0.5000000
        k(    3) = (   0.2500000  -0.2500000  -0.2500000), wk =   1.0000000

     Check: negative/imaginary core charge=   -0.000001    0.000000

     Initial potential from superposition of free atoms

     starting charge  255.96421, renormalised to  256.00000
     Starting wfcs are  256 randomized atomic wfcs

     Self-consistent Calculation

     iteration #  1     ecut=    50.00 Ry     beta= 0.70
     Davidson diagonalization with overlap
     ethr =  1.00E-02,  avg # of iterations =  3.0

     Threshold (ethr) on eigenvalues was too large:
     Diagonalizing with lowered threshold

     Davidson diagonalization with overlap
     ethr =  6.78E-04,  avg # of iterations =  2.0

     total energy              =    -730.80260579 Ry
     Harris-Foulkes estimate   =    -731.20862076 Ry
     estimated scf accuracy    <       1.72024314 Ry

[...]

     total energy              =    -730.88003011 Ry
     Harris-Foulkes estimate   =    -730.88003011 Ry
     estimated scf accuracy    <       0.00000002 Ry

     iteration # 12     ecut=    50.00 Ry     beta= 0.70
     Davidson diagonalization with overlap
     ethr =  6.58E-12,  avg # of iterations =  2.0

     End of self-consistent calculation

          k = 0.2500 0.2500 0.2500 ( 52563 PWs)   bands (ev):

    -5.6274  -5.1026  -5.0998  -5.0959  -4.6031  -4.6007  -4.5969  -4.1661
    -4.0704  -4.0675  -4.0629  -3.6628  -3.6547  -3.6513  -3.6494  -3.6477
    -3.6457  -3.4640  -3.4595  -3.4566  -2.9647  -2.9631  -2.9569  -2.5989
    -2.5944  -2.5910  -2.4361  -2.4293  -2.4259  -2.4250  -2.4214  -2.4201
    -0.8910  -0.8896  -0.8839  -0.8816  -0.8782  -0.8782  -0.7884  -0.7860
    -0.7820  -0.6691  -0.6680  -0.6619  -0.5906  -0.5875  -0.5810   0.1164
     0.1997   0.2009   0.2041   0.2084   0.2106   0.2128   1.0704   1.0780
     1.0816   1.4089   1.4120   1.4152   2.0170   2.0199   2.0227   2.0234
     2.0248   2.0278   2.0812   2.0820   2.0849   2.6297   2.6308   2.6334
     2.7334   2.7340   2.7369   2.7376   2.7404   2.7439   2.7876   2.7934
     2.7963   3.0950   3.0982   3.0996   3.1011   3.1020   3.1067   3.3638
     3.3655   3.3681   3.3777   3.3807   3.3839   3.7236   3.7243   3.7288
     3.7441   3.7464   3.7500   3.8311   3.8348   3.8349   4.0975   4.1001
     4.1054   4.1065   4.1072   4.1094   4.1454   4.1492   4.1496   4.4025
     4.4640   4.4648   4.4700   4.7064   4.7107   4.7109   4.7621   4.7682
     4.7716   4.9280   4.9330   5.2355   5.2410   5.2417   5.7167   5.7224
     6.9285   6.9324   6.9350   7.3668   7.3705   7.3767   7.5982   7.8537
     7.8575   7.8627   7.9816   7.9840   7.9880   8.1423   8.1436   8.1495
     8.1625   8.1643   8.1709   8.3897   8.3904   8.3939   8.3967   8.3994
     8.3996   8.4467

          k =-0.2500 0.2500-0.2500 ( 52563 PWs)   bands (ev):

[...]

          k = 0.2500-0.2500-0.2500 ( 52563 PWs)   bands (ev):

    -5.6275  -5.1030  -5.1000  -5.0949  -4.6039  -4.6009  -4.5960  -4.1671
    -4.0710  -4.0682  -4.0627  -3.6603  -3.6539  -3.6530  -3.6506  -3.6495
    -3.6411  -3.4638  -3.4594  -3.4548  -2.9669  -2.9650  -2.9585  -2.5996
    -2.5943  -2.5892  -2.4345  -2.4283  -2.4276  -2.4252  -2.4238  -2.4166
    -0.8932  -0.8872  -0.8850  -0.8834  -0.8813  -0.8753  -0.7918  -0.7863
    -0.7810  -0.6737  -0.6682  -0.6623  -0.5878  -0.5819  -0.5764   0.1202
     0.1950   0.2005   0.2043   0.2051   0.2085   0.2141   1.0739   1.0787
     1.0846   1.4078   1.4117   1.4163   2.0180   2.0202   2.0209   2.0229
     2.0242   2.0287   2.0790   2.0814   2.0840   2.6303   2.6333   2.6362
     2.7307   2.7322   2.7354   2.7371   2.7411   2.7417   2.7864   2.7895
     2.7947   3.0951   3.0974   3.0997   3.1003   3.1027   3.1084   3.3628
     3.3650   3.3665   3.3753   3.3792   3.3833   3.7239   3.7281   3.7309
     3.7451   3.7498   3.7547   3.8297   3.8320   3.8357   4.0985   4.1051
     4.1060   4.1074   4.1099   4.1157   4.1436   4.1460   4.1506   4.4065
     4.4616   4.4643   4.4660   4.7041   4.7069   4.7107   4.7677   4.7718
     4.7772   4.9249   4.9336   5.2324   5.2362   5.2413   5.7122   5.7220
     6.9270   6.9301   6.9337   7.3654   7.3718   7.3744   7.5967   7.8513
     7.8576   7.8599   7.9813   7.9861   7.9905   8.1406   8.1456   8.1480
     8.1631   8.1650   8.1673   8.3893   8.3932   8.3960   8.3970   8.4005
     8.4046   8.4443

     the Fermi energy is     6.3204 ev

!    total energy              =    -730.88003010 Ry
     Harris-Foulkes estimate   =    -730.88003011 Ry
     estimated scf accuracy    <          4.3E-09 Ry

     The total energy is the sum of the following terms:

     one-electron contribution =     160.47274636 Ry
     hartree contribution      =      35.78743002 Ry
     xc contribution           =    -393.13400757 Ry
     ewald contribution        =    -534.00619892 Ry
     smearing contrib. (-TS)   =      -0.00000000 Ry

     convergence has been achieved in  12 iterations

     Forces acting on atoms (cartesian axes, Ry/au):

     atom    1 type  1   force =    -0.01598108   -0.00000918    0.00004340
     atom    2 type  1   force =    -0.00005048    0.00000925    0.00004372
     atom    3 type  1   force =    -0.00017493   -0.00011478    0.00023722
     atom    4 type  1   force =     0.00022438    0.00011454    0.00023738
     atom    5 type  1   force =    -0.00002153   -0.00000911    0.00004404
     atom    6 type  1   force =     0.00007099    0.00000903    0.00004400
     atom    7 type  1   force =    -0.00025218   -0.00011053    0.00023112
     atom    8 type  1   force =    -0.00019853    0.00011009    0.00023125
     atom    9 type  1   force =    -0.00064087    0.00022532   -0.00041119
     atom   10 type  1   force =    -0.00011256   -0.00010538   -0.00052195
     atom   11 type  1   force =    -0.00041119    0.00022532   -0.00064087
     atom   12 type  1   force =     0.00011321   -0.00010077   -0.00053608
     atom   13 type  1   force =    -0.00053608   -0.00010077    0.00011321
     atom   14 type  1   force =    -0.00000601   -0.00001842    0.00001136
     atom   15 type  1   force =    -0.00052195   -0.00010538   -0.00011256
     atom   16 type  1   force =     0.00001136   -0.00001842   -0.00000601
     atom   17 type  1   force =     0.00023112   -0.00011053   -0.00025218
     atom   18 type  1   force =     0.00023722   -0.00011478   -0.00017493
     atom   19 type  1   force =     0.00004404   -0.00000911   -0.00002153
     atom   20 type  1   force =     0.00004340   -0.00000918   -0.01598108
     atom   21 type  1   force =     0.00023125    0.00011009   -0.00019853
     atom   22 type  1   force =     0.00023738    0.00011454    0.00022438
     atom   23 type  1   force =     0.00004400    0.00000903    0.00007099
     atom   24 type  1   force =     0.00004372    0.00000925   -0.00005048
     atom   25 type  1   force =     0.00024032    0.00014876   -0.00006653
     atom   26 type  1   force =     0.00035219   -0.00000015    0.00012294
     atom   27 type  1   force =     0.00022202   -0.00014898    0.00015446
     atom   28 type  1   force =     0.00012294   -0.00000015    0.00035219
     atom   29 type  1   force =     0.00005336    0.00000025    0.00003484
     atom   30 type  1   force =     0.00015446   -0.00014898    0.00022202
     atom   31 type  1   force =     0.00003484    0.00000025    0.00005336
     atom   32 type  1   force =    -0.00006653    0.00014876    0.00024032
     atom   33 type  1   force =     0.00001702   -0.00001932   -0.00002607
     atom   34 type  1   force =     0.00276983   -0.00248323    0.00386783
     atom   35 type  1   force =     0.00005502   -0.00000074    0.00027965
     atom   36 type  1   force =    -0.00000886    0.00001275   -0.00001962
     atom   37 type  1   force =     0.00005375   -0.00000418    0.00005549
     atom   38 type  1   force =    -0.00002255    0.00000047    0.00003969
     atom   39 type  1   force =     0.00002152    0.00000641    0.00001709
     atom   40 type  1   force =     0.00398645    0.00271021    0.00276555
     atom   41 type  1   force =    -0.00003763   -0.00006519    0.00022111
     atom   42 type  1   force =     0.00390769   -0.00277389   -0.00279688
     atom   43 type  1   force =    -0.00001028   -0.00007365   -0.00008607
     atom   44 type  1   force =    -0.00279688   -0.00277389    0.00390769
     atom   45 type  1   force =    -0.00000354   -0.00005782   -0.00004396
     atom   46 type  1   force =    -0.00008607   -0.00007365   -0.00001028
     atom   47 type  1   force =    -0.00004396   -0.00005782   -0.00000354
     atom   48 type  1   force =     0.00022111   -0.00006519   -0.00003763
     atom   49 type  1   force =    -0.00001962    0.00001275   -0.00000886
     atom   50 type  1   force =     0.00276555    0.00271021    0.00398645
     atom   51 type  1   force =     0.00386783   -0.00248323    0.00276983
     atom   52 type  1   force =     0.00003969    0.00000047   -0.00002255
     atom   53 type  1   force =     0.00027965   -0.00000074    0.00005502
     atom   54 type  1   force =     0.00001709    0.00000641    0.00002152
     atom   55 type  1   force =    -0.00002607   -0.00001932    0.00001702
     atom   56 type  1   force =     0.00005549   -0.00000418    0.00005375
     atom   57 type  1   force =    -0.00008536    0.00007826    0.00021831
     atom   58 type  1   force =    -0.00002149    0.00006524   -0.00008375
     atom   59 type  1   force =     0.00021831    0.00007826   -0.00008536
     atom   60 type  1   force =    -0.00253031    0.00254133    0.00380828
     atom   61 type  1   force =     0.00380828    0.00254133   -0.00253031
     atom   62 type  1   force =    -0.00003841    0.00006342   -0.00000781
     atom   63 type  1   force =    -0.00008375    0.00006524   -0.00002149
     atom   64 type  1   force =    -0.00000781    0.00006342   -0.00003841

     Total force =     0.027405     Total SCF correction =     0.000132

     Writing output data file pwscf.save/

     General routines

     Parallel routines

   This run was terminated on:  13:48:41  14Feb2020

   JOB DONE.