     Program PWSCF v.6.3MaX starts on 14Feb2020 at 15:10: 3

     R & G space division:  proc/nbgrp/npool/nimage =       2
     Waiting for input...
     Reading input from standard input

     Current dimensions of program PWSCF are:
     Max number of different atomic species (ntypx) = 10
     Max number of k-points (npk) =  40000
     Max angular momentum in pseudopotentials (lmaxx) =  3

     Subspace diagonalization in iterative solution of the eigenvalue problem:
     a serial algorithm will be used

     bravais-lattice index     =            0
     lattice parameter (alat)  =      20.6591  a.u.
     unit-cell volume          =    8817.2783 (a.u.)^3
     number of atoms/cell      =           64
     number of atomic types    =            1
     number of electrons       =       256.00
     number of Kohn-Sham states=          154
     kinetic-energy cutoff     =      50.0000  Ry
     charge density cutoff     =     200.0000  Ry
     convergence threshold     =      1.0E-08
     mixing beta               =       0.7000
     number of iterations used =            8  plain     mixing
     Exchange-correlation      = PBE ( 1  4  3  4 0 0)

     celldm(1)=  20.659106  celldm(2)=   0.000000  celldm(3)=   0.000000
     celldm(4)=   0.000000  celldm(5)=   0.000000  celldm(6)=   0.000000

     crystal axes: (cart. coord. in units of alat)
               a(1) = (   1.000000   0.000000   0.000000 )
               a(2) = (   0.000000   1.000000   0.000000 )
               a(3) = (   0.000000   0.000000   1.000000 )

     reciprocal axes: (cart. coord. in units 2 pi/alat)
               b(1) = (  1.000000  0.000000  0.000000 )
               b(2) = (  0.000000  1.000000  0.000000 )
               b(3) = (  0.000000  0.000000  1.000000 )

     PseudoPot. # 1 for Si read from file:
     ~/kedar/softwares/SSSP_precision_pseudos/Si.pbe-n-rrkjus_psl.1.0.0.UPF
     MD5 check sum: Not computed, couldn't open file
     Pseudo is Ultrasoft + core correction, Zval =  4.0
     Generated using "atomic" code by A. Dal Corso v.5.1
     Using radial grid of 1141 points,  6 beta functions with:
                l(1) =   0
                l(2) =   0
                l(3) =   1
                l(4) =   1
                l(5) =   2
                l(6) =   2
     Q(r) pseudized with 0 coefficients

     atomic species   valence    mass     pseudopotential
        Si             4.00    28.08550     Si( 1.00)

      4 Sym. Ops., with inversion, found ( 2 have fractional translation)

   Cartesian axes

     site n.     atom                  positions (alat units)
         1           Si  tau(   1) = (   0.4404043   0.4375000   0.4375000  )
         2           Si  tau(   2) = (   0.9375000   0.4375000   0.4375000  )
         3           Si  tau(   3) = (   0.4375000   0.9375000   0.4375000  )
         4           Si  tau(   4) = (   0.9375000   0.9375000   0.4375000  )
         5           Si  tau(   5) = (   0.4375000   0.4375000   0.9375000  )
         6           Si  tau(   6) = (   0.9375000   0.4375000   0.9375000  )
         7           Si  tau(   7) = (   0.4375000   0.9375000   0.9375000  )
         8           Si  tau(   8) = (   0.9375000   0.9375000   0.9375000  )
         9           Si  tau(   9) = (   0.4375000   0.1875000   0.1875000  )
        10           Si  tau(  10) = (   0.9375000   0.1875000   0.1875000  )
        11           Si  tau(  11) = (   0.4375000   0.6875000   0.1875000  )
        12           Si  tau(  12) = (   0.9375000   0.6875000   0.1875000  )
        13           Si  tau(  13) = (   0.4375000   0.1875000   0.6875000  )
        14           Si  tau(  14) = (   0.9375000   0.1875000   0.6875000  )
        15           Si  tau(  15) = (   0.4375000   0.6875000   0.6875000  )
        16           Si  tau(  16) = (   0.9375000   0.6875000   0.6875000  )
        17           Si  tau(  17) = (   0.1875000   0.4375000   0.1875000  )
        18           Si  tau(  18) = (   0.6875000   0.4375000   0.1875000  )
        19           Si  tau(  19) = (   0.1875000   0.9375000   0.1875000  )
        20           Si  tau(  20) = (   0.6875000   0.9375000   0.1875000  )
        21           Si  tau(  21) = (   0.1875000   0.4375000   0.6875000  )
        22           Si  tau(  22) = (   0.6875000   0.4375000   0.6875000  )
        23           Si  tau(  23) = (   0.1875000   0.9375000   0.6875000  )
        24           Si  tau(  24) = (   0.6875000   0.9375000   0.6875000  )
        25           Si  tau(  25) = (   0.1875000   0.1875000   0.4375000  )
        26           Si  tau(  26) = (   0.6875000   0.1875000   0.4375000  )
        27           Si  tau(  27) = (   0.1875000   0.6875000   0.4375000  )
        28           Si  tau(  28) = (   0.6875000   0.6875000   0.4375000  )
        29           Si  tau(  29) = (   0.1875000   0.1875000   0.9375000  )
        30           Si  tau(  30) = (   0.6875000   0.1875000   0.9375000  )
        31           Si  tau(  31) = (   0.1875000   0.6875000   0.9375000  )
        32           Si  tau(  32) = (   0.6875000   0.6875000   0.9375000  )
        33           Si  tau(  33) = (   0.0625000   0.0625000   0.0625000  )
        34           Si  tau(  34) = (   0.5595957   0.0625000   0.0625000  )
        35           Si  tau(  35) = (   0.0625000   0.5625000   0.0625000  )
        36           Si  tau(  36) = (   0.5625000   0.5625000   0.0625000  )
        37           Si  tau(  37) = (   0.0625000   0.0625000   0.5625000  )
        38           Si  tau(  38) = (   0.5625000   0.0625000   0.5625000  )
        39           Si  tau(  39) = (   0.0625000   0.5625000   0.5625000  )
        40           Si  tau(  40) = (   0.5625000   0.5625000   0.5625000  )
        41           Si  tau(  41) = (   0.0625000   0.3125000   0.3125000  )
        42           Si  tau(  42) = (   0.5625000   0.3125000   0.3125000  )
        43           Si  tau(  43) = (   0.0625000   0.8125000   0.3125000  )
        44           Si  tau(  44) = (   0.5625000   0.8125000   0.3125000  )
        45           Si  tau(  45) = (   0.0625000   0.3125000   0.8125000  )
        46           Si  tau(  46) = (   0.5625000   0.3125000   0.8125000  )
        47           Si  tau(  47) = (   0.0625000   0.8125000   0.8125000  )
        48           Si  tau(  48) = (   0.5625000   0.8125000   0.8125000  )
        49           Si  tau(  49) = (   0.3125000   0.0625000   0.3125000  )
        50           Si  tau(  50) = (   0.8125000   0.0625000   0.3125000  )
        51           Si  tau(  51) = (   0.3125000   0.5625000   0.3125000  )
        52           Si  tau(  52) = (   0.8125000   0.5625000   0.3125000  )
        53           Si  tau(  53) = (   0.3125000   0.0625000   0.8125000  )
        54           Si  tau(  54) = (   0.8125000   0.0625000   0.8125000  )
        55           Si  tau(  55) = (   0.3125000   0.5625000   0.8125000  )
        56           Si  tau(  56) = (   0.8125000   0.5625000   0.8125000  )
        57           Si  tau(  57) = (   0.3125000   0.3125000   0.0625000  )
        58           Si  tau(  58) = (   0.8125000   0.3125000   0.0625000  )
        59           Si  tau(  59) = (   0.3125000   0.8125000   0.0625000  )
        60           Si  tau(  60) = (   0.8125000   0.8125000   0.0625000  )
        61           Si  tau(  61) = (   0.3125000   0.3125000   0.5625000  )
        62           Si  tau(  62) = (   0.8125000   0.3125000   0.5625000  )
        63           Si  tau(  63) = (   0.3125000   0.8125000   0.5625000  )
        64           Si  tau(  64) = (   0.8125000   0.8125000   0.5625000  )

     number of k points=     3  gaussian smearing, width (Ry)=  0.0100
                       cart. coord. in units 2pi/alat
        k(    1) = (   0.2500000   0.2500000   0.2500000), wk =   0.5000000
        k(    2) = (   0.2500000   0.2500000  -0.2500000), wk =   1.0000000
        k(    3) = (  -0.2500000   0.2500000   0.2500000), wk =   0.5000000

     Check: negative/imaginary core charge=   -0.000001    0.000000

     Initial potential from superposition of free atoms

     starting charge  255.96421, renormalised to  256.00000
     Starting wfcs are  256 randomized atomic wfcs

     Self-consistent Calculation

     iteration #  1     ecut=    50.00 Ry     beta= 0.70
     Davidson diagonalization with overlap
     ethr =  1.00E-02,  avg # of iterations =  3.0

     Threshold (ethr) on eigenvalues was too large:
     Diagonalizing with lowered threshold

     Davidson diagonalization with overlap
     ethr =  6.78E-04,  avg # of iterations =  2.0

     total energy              =    -730.80252075 Ry
     Harris-Foulkes estimate   =    -731.20842534 Ry
     estimated scf accuracy    <       1.71993525 Ry

[...]

     total energy              =    -730.88001009 Ry
     Harris-Foulkes estimate   =    -730.88001010 Ry
     estimated scf accuracy    <       0.00000003 Ry

     iteration # 12     ecut=    50.00 Ry     beta= 0.70
     Davidson diagonalization with overlap
     ethr =  1.11E-11,  avg # of iterations =  3.0

     End of self-consistent calculation

          k = 0.2500 0.2500 0.2500 ( 52563 PWs)   bands (ev):

    -5.6274  -5.1051  -5.0976  -5.0957  -4.6057  -4.5984  -4.5965  -4.1661
    -4.0727  -4.0656  -4.0627  -3.6629  -3.6523  -3.6513  -3.6487  -3.6487
    -3.6476  -3.4660  -3.4575  -3.4564  -2.9667  -2.9614  -2.9568  -2.5995
    -2.5935  -2.5914  -2.4379  -2.4262  -2.4259  -2.4232  -2.4229  -2.4215
    -0.8968  -0.8847  -0.8839  -0.8809  -0.8783  -0.8775  -0.7872  -0.7869
    -0.7827  -0.6725  -0.6663  -0.6600  -0.5916  -0.5875  -0.5800   0.1163
     0.1953   0.2041   0.2059   0.2080   0.2112   0.2122   1.0687   1.0787
     1.0825   1.4065   1.4139   1.4157   2.0153   2.0210   2.0220   2.0234
     2.0255   2.0278   2.0806   2.0841   2.0843   2.6286   2.6322   2.6331
     2.7325   2.7342   2.7349   2.7374   2.7425   2.7434   2.7870   2.7939
     2.7975   3.0907   3.0986   3.1011   3.1016   3.1029   3.1078   3.3636
     3.3655   3.3682   3.3748   3.3829   3.3846   3.7204   3.7272   3.7294
     3.7417   3.7480   3.7504   3.8299   3.8342   3.8367   4.0938   4.1026
     4.1046   4.1071   4.1085   4.1100   4.1439   4.1486   4.1515   4.4025
     4.4640   4.4643   4.4707   4.7050   4.7098   4.7127   4.7620   4.7685
     4.7720   4.9255   4.9355   5.2345   5.2400   5.2437   5.7139   5.7253
     6.9266   6.9341   6.9352   7.3653   7.3722   7.3764   7.5983   7.8524
     7.8587   7.8631   7.9814   7.9820   7.9899   8.1420   8.1438   8.1496
     8.1616   8.1647   8.1714   8.3852   8.3915   8.3954   8.3971   8.3982
     8.4020   8.4467

          k = 0.2500 0.2500-0.2500 ( 52563 PWs)   bands (ev):

[...]

          k =-0.2500 0.2500 0.2500 ( 52563 PWs)   bands (ev):

    -5.6274  -5.1037  -5.0976  -5.0971  -4.6046  -4.5984  -4.5976  -4.1659
    -4.0714  -4.0656  -4.0640  -3.6614  -3.6576  -3.6508  -3.6507  -3.6461
    -3.6447  -3.4669  -3.4569  -3.4565  -2.9671  -2.9614  -2.9563  -2.6021
    -2.5914  -2.5905  -2.4353  -2.4315  -2.4255  -2.4254  -2.4206  -2.4197
    -0.8961  -0.8836  -0.8834  -0.8834  -0.8792  -0.8762  -0.7931  -0.7827
    -0.7814  -0.6731  -0.6664  -0.6593  -0.5936  -0.5853  -0.5799   0.1164
     0.1922   0.2043   0.2050   0.2073   0.2137   0.2139   1.0682   1.0793
     1.0825   1.4060   1.4142   1.4157   2.0159   2.0216   2.0228   2.0231
     2.0242   2.0279   2.0795   2.0838   2.0850   2.6276   2.6332   2.6332
     2.7323   2.7334   2.7365   2.7384   2.7408   2.7452   2.7881   2.7922
     2.7966   3.0913   3.0990   3.1007   3.1018   3.1029   3.1066   3.3634
     3.3664   3.3679   3.3744   3.3834   3.3839   3.7207   3.7271   3.7294
     3.7403   3.7491   3.7504   3.8300   3.8329   3.8380   4.0934   4.1015
     4.1058   4.1073   4.1077   4.1106   4.1442   4.1471   4.1528   4.4025
     4.4640   4.4662   4.4690   4.7049   4.7081   4.7146   4.7606   4.7702
     4.7719   4.9255   4.9354   5.2345   5.2377   5.2460   5.7138   5.7253
     6.9267   6.9341   6.9352   7.3652   7.3733   7.3754   7.5982   7.8523
     7.8599   7.8615   7.9803   7.9821   7.9911   8.1423   8.1449   8.1497
     8.1613   8.1665   8.1685   8.3844   8.3923   8.3943   8.3970   8.3984
     8.4032   8.4466

     the Fermi energy is     6.3204 ev

!    total energy              =    -730.88001009 Ry
     Harris-Foulkes estimate   =    -730.88001009 Ry
     estimated scf accuracy    <          1.7E-09 Ry

     The total energy is the sum of the following terms:

     one-electron contribution =     160.47296993 Ry
     hartree contribution      =      35.78730345 Ry
     xc contribution           =    -393.13399458 Ry
     ewald contribution        =    -534.00628890 Ry
     smearing contrib. (-TS)   =      -0.00000000 Ry

     convergence has been achieved in  12 iterations

     Forces acting on atoms (cartesian axes, Ry/au):

     atom    1 type  1   force =    -0.01631638   -0.00002765   -0.00002765
     atom    2 type  1   force =     0.00004378   -0.00003102   -0.00003102
     atom    3 type  1   force =     0.00011418   -0.00004986   -0.00003782
     atom    4 type  1   force =    -0.00003314   -0.00002672   -0.00002549
     atom    5 type  1   force =     0.00011418   -0.00003782   -0.00004986
     atom    6 type  1   force =    -0.00003314   -0.00002549   -0.00002672
     atom    7 type  1   force =    -0.00443543   -0.00273611   -0.00273611
     atom    8 type  1   force =     0.00003553   -0.00003689   -0.00003689
     atom    9 type  1   force =    -0.00449105    0.00285093    0.00285093
     atom   10 type  1   force =     0.00001171    0.00004620    0.00004620
     atom   11 type  1   force =    -0.00046658    0.00014767   -0.00006032
     atom   12 type  1   force =    -0.00002400    0.00003441    0.00001735
     atom   13 type  1   force =    -0.00046658   -0.00006032    0.00014767
     atom   14 type  1   force =    -0.00002400    0.00001735    0.00003441
     atom   15 type  1   force =    -0.00078890   -0.00008640   -0.00008640
     atom   16 type  1   force =     0.00002099    0.00002138    0.00002138
     atom   17 type  1   force =     0.00020157   -0.00008377    0.00019603
     atom   18 type  1   force =     0.00029496   -0.00007764   -0.00027891
     atom   19 type  1   force =     0.00005375    0.00002787   -0.00011394
     atom   20 type  1   force =    -0.00379517    0.00250141   -0.00243663
     atom   21 type  1   force =     0.00025107    0.00014021   -0.00025558
     atom   22 type  1   force =    -0.00001737    0.00014248    0.00020090
     atom   23 type  1   force =     0.00001518    0.00003820    0.00005090
     atom   24 type  1   force =     0.00010058    0.00005973   -0.00011125
     atom   25 type  1   force =     0.00020157    0.00019603   -0.00008377
     atom   26 type  1   force =     0.00029496   -0.00027891   -0.00007764
     atom   27 type  1   force =     0.00025107   -0.00025558    0.00014021
     atom   28 type  1   force =    -0.00001737    0.00020090    0.00014248
     atom   29 type  1   force =     0.00005375   -0.00011394    0.00002787
     atom   30 type  1   force =    -0.00379517   -0.00243663    0.00250141
     atom   31 type  1   force =     0.00001518    0.00005090    0.00003820
     atom   32 type  1   force =     0.00010058   -0.00011125    0.00005973
     atom   33 type  1   force =    -0.00004378    0.00003102    0.00003102
     atom   34 type  1   force =     0.01631638    0.00002765    0.00002765
     atom   35 type  1   force =     0.00003314    0.00002672    0.00002549
     atom   36 type  1   force =    -0.00011418    0.00004986    0.00003782
     atom   37 type  1   force =     0.00003314    0.00002549    0.00002672
     atom   38 type  1   force =    -0.00011418    0.00003782    0.00004986
     atom   39 type  1   force =    -0.00003553    0.00003689    0.00003689
     atom   40 type  1   force =     0.00443543    0.00273611    0.00273611
     atom   41 type  1   force =    -0.00001171   -0.00004620   -0.00004620
     atom   42 type  1   force =     0.00449105   -0.00285093   -0.00285093
     atom   43 type  1   force =     0.00002400   -0.00003441   -0.00001735
     atom   44 type  1   force =     0.00046658   -0.00014767    0.00006032
     atom   45 type  1   force =     0.00002400   -0.00001735   -0.00003441
     atom   46 type  1   force =     0.00046658    0.00006032   -0.00014767
     atom   47 type  1   force =    -0.00002099   -0.00002138   -0.00002138
     atom   48 type  1   force =     0.00078890    0.00008640    0.00008640
     atom   49 type  1   force =    -0.00029496    0.00007764    0.00027891
     atom   50 type  1   force =    -0.00020157    0.00008377   -0.00019603
     atom   51 type  1   force =     0.00379517   -0.00250141    0.00243663
     atom   52 type  1   force =    -0.00005375   -0.00002787    0.00011394
     atom   53 type  1   force =     0.00001737   -0.00014248   -0.00020090
     atom   54 type  1   force =    -0.00025107   -0.00014021    0.00025558
     atom   55 type  1   force =    -0.00010058   -0.00005973    0.00011125
     atom   56 type  1   force =    -0.00001518   -0.00003820   -0.00005090
     atom   57 type  1   force =    -0.00029496    0.00027891    0.00007764
     atom   58 type  1   force =    -0.00020157   -0.00019603    0.00008377
     atom   59 type  1   force =     0.00001737   -0.00020090   -0.00014248
     atom   60 type  1   force =    -0.00025107    0.00025558   -0.00014021
     atom   61 type  1   force =     0.00379517    0.00243663   -0.00250141
     atom   62 type  1   force =    -0.00005375    0.00011394   -0.00002787
     atom   63 type  1   force =    -0.00010058    0.00011125   -0.00005973
     atom   64 type  1   force =    -0.00001518   -0.00005090   -0.00003820

     Total force =     0.028025     Total SCF correction =     0.000069

     Writing output data file pwscf.save/

     General routines

     Parallel routines

   This run was terminated on:  15:32: 5  14Feb2020

   JOB DONE.