     Program PWSCF v.6.3MaX starts on 14Feb2020 at 12:19: 4

     R & G space division:  proc/nbgrp/npool/nimage =       2
     Waiting for input...
     Reading input from standard input

     Current dimensions of program PWSCF are:
     Max number of different atomic species (ntypx) = 10
     Max number of k-points (npk) =  40000
     Max angular momentum in pseudopotentials (lmaxx) =  3

     Subspace diagonalization in iterative solution of the eigenvalue problem:
     a serial algorithm will be used

     bravais-lattice index     =            0
     lattice parameter (alat)  =      20.6591  a.u.
     unit-cell volume          =    8817.2783 (a.u.)^3
     number of atoms/cell      =           64
     number of atomic types    =            1
     number of electrons       =       256.00
     number of Kohn-Sham states=          154
     kinetic-energy cutoff     =      50.0000  Ry
     charge density cutoff     =     200.0000  Ry
     convergence threshold     =      1.0E-08
     mixing beta               =       0.7000
     number of iterations used =            8  plain     mixing
     Exchange-correlation      = PBE ( 1  4  3  4 0 0)

     celldm(1)=  20.659106  celldm(2)=   0.000000  celldm(3)=   0.000000
     celldm(4)=   0.000000  celldm(5)=   0.000000  celldm(6)=   0.000000

     crystal axes: (cart. coord. in units of alat)
               a(1) = (   1.000000   0.000000   0.000000 )
               a(2) = (   0.000000   1.000000   0.000000 )
               a(3) = (   0.000000   0.000000   1.000000 )

     reciprocal axes: (cart. coord. in units 2 pi/alat)
               b(1) = (  1.000000  0.000000  0.000000 )
               b(2) = (  0.000000  1.000000  0.000000 )
               b(3) = (  0.000000  0.000000  1.000000 )

     PseudoPot. # 1 for Si read from file:
     ~/kedar/softwares/SSSP_precision_pseudos/Si.pbe-n-rrkjus_psl.1.0.0.UPF
     MD5 check sum: Not computed, couldn't open file
     Pseudo is Ultrasoft + core correction, Zval =  4.0
     Generated using "atomic" code by A. Dal Corso v.5.1
     Using radial grid of 1141 points,  6 beta functions with:
                l(1) =   0
                l(2) =   0
                l(3) =   1
                l(4) =   1
                l(5) =   2
                l(6) =   2
     Q(r) pseudized with 0 coefficients

     atomic species   valence    mass     pseudopotential
        Si             4.00    28.08550     Si( 1.00)

     No symmetry found

   Cartesian axes

     site n.     atom                  positions (alat units)
         1           Si  tau(   1) = (   0.4404043   0.4375000   0.4375000  )
         2           Si  tau(   2) = (   0.9375000   0.4375000   0.4375000  )
         3           Si  tau(   3) = (   0.4375000   0.9375000   0.4375000  )
         4           Si  tau(   4) = (   0.9375000   0.9375000   0.4375000  )
         5           Si  tau(   5) = (   0.4375000   0.4375000   0.9375000  )
         6           Si  tau(   6) = (   0.9375000   0.4375000   0.9375000  )
         7           Si  tau(   7) = (   0.4375000   0.9375000   0.9375000  )
         8           Si  tau(   8) = (   0.9375000   0.9375000   0.9375000  )
         9           Si  tau(   9) = (   0.4375000   0.1875000   0.1875000  )
        10           Si  tau(  10) = (   0.9375000   0.1875000   0.1875000  )
        11           Si  tau(  11) = (   0.4375000   0.6875000   0.1875000  )
        12           Si  tau(  12) = (   0.9375000   0.6875000   0.1875000  )
        13           Si  tau(  13) = (   0.4375000   0.1875000   0.6875000  )
        14           Si  tau(  14) = (   0.9375000   0.1875000   0.6875000  )
        15           Si  tau(  15) = (   0.4375000   0.6875000   0.6875000  )
        16           Si  tau(  16) = (   0.9375000   0.6875000   0.6875000  )
        17           Si  tau(  17) = (   0.1875000   0.4375000   0.1875000  )
        18           Si  tau(  18) = (   0.6875000   0.4375000   0.1875000  )
        19           Si  tau(  19) = (   0.1875000   0.9375000   0.1904043  )
        20           Si  tau(  20) = (   0.6875000   0.9375000   0.1875000  )
        21           Si  tau(  21) = (   0.1875000   0.4375000   0.6875000  )
        22           Si  tau(  22) = (   0.6875000   0.4375000   0.6875000  )
        23           Si  tau(  23) = (   0.1875000   0.9375000   0.6875000  )
        24           Si  tau(  24) = (   0.6875000   0.9375000   0.6875000  )
        25           Si  tau(  25) = (   0.1875000   0.1875000   0.4375000  )
        26           Si  tau(  26) = (   0.6875000   0.1875000   0.4375000  )
        27           Si  tau(  27) = (   0.1875000   0.6875000   0.4375000  )
        28           Si  tau(  28) = (   0.6875000   0.6875000   0.4375000  )
        29           Si  tau(  29) = (   0.1875000   0.1875000   0.9375000  )
        30           Si  tau(  30) = (   0.6875000   0.1875000   0.9375000  )
        31           Si  tau(  31) = (   0.1875000   0.6875000   0.9375000  )
        32           Si  tau(  32) = (   0.6875000   0.6875000   0.9375000  )
        33           Si  tau(  33) = (   0.0625000   0.0625000   0.0625000  )
        34           Si  tau(  34) = (   0.5625000   0.0625000   0.0625000  )
        35           Si  tau(  35) = (   0.0625000   0.5625000   0.0625000  )
        36           Si  tau(  36) = (   0.5625000   0.5625000   0.0625000  )
        37           Si  tau(  37) = (   0.0625000   0.0625000   0.5625000  )
        38           Si  tau(  38) = (   0.5625000   0.0625000   0.5625000  )
        39           Si  tau(  39) = (   0.0625000   0.5625000   0.5625000  )
        40           Si  tau(  40) = (   0.5625000   0.5625000   0.5625000  )
        41           Si  tau(  41) = (   0.0625000   0.3125000   0.3125000  )
        42           Si  tau(  42) = (   0.5625000   0.3125000   0.3125000  )
        43           Si  tau(  43) = (   0.0625000   0.8125000   0.3125000  )
        44           Si  tau(  44) = (   0.5625000   0.8125000   0.3125000  )
        45           Si  tau(  45) = (   0.0625000   0.3125000   0.8125000  )
        46           Si  tau(  46) = (   0.5625000   0.3125000   0.8125000  )
        47           Si  tau(  47) = (   0.0625000   0.8125000   0.8125000  )
        48           Si  tau(  48) = (   0.5625000   0.8125000   0.8125000  )
        49           Si  tau(  49) = (   0.3125000   0.0625000   0.3125000  )
        50           Si  tau(  50) = (   0.8125000   0.0625000   0.3125000  )
        51           Si  tau(  51) = (   0.3125000   0.5625000   0.3125000  )
        52           Si  tau(  52) = (   0.8125000   0.5625000   0.3125000  )
        53           Si  tau(  53) = (   0.3125000   0.0625000   0.8125000  )
        54           Si  tau(  54) = (   0.8125000   0.0625000   0.8125000  )
        55           Si  tau(  55) = (   0.3125000   0.5625000   0.8125000  )
        56           Si  tau(  56) = (   0.8125000   0.5625000   0.8125000  )
        57           Si  tau(  57) = (   0.3125000   0.3125000   0.0625000  )
        58           Si  tau(  58) = (   0.8125000   0.3125000   0.0625000  )
        59           Si  tau(  59) = (   0.3125000   0.8125000   0.0625000  )
        60           Si  tau(  60) = (   0.8125000   0.8125000   0.0625000  )
        61           Si  tau(  61) = (   0.3125000   0.3125000   0.5625000  )
        62           Si  tau(  62) = (   0.8125000   0.3125000   0.5625000  )
        63           Si  tau(  63) = (   0.3125000   0.8125000   0.5625000  )
        64           Si  tau(  64) = (   0.8125000   0.8125000   0.5625000  )

     number of k points=     4  gaussian smearing, width (Ry)=  0.0100
                       cart. coord. in units 2pi/alat
        k(    1) = (   0.2500000   0.2500000   0.2500000), wk =   0.5000000
        k(    2) = (  -0.2500000  -0.2500000   0.2500000), wk =   0.5000000
        k(    3) = (  -0.2500000   0.2500000  -0.2500000), wk =   0.5000000
        k(    4) = (   0.2500000  -0.2500000  -0.2500000), wk =   0.5000000

     Check: negative/imaginary core charge=   -0.000001    0.000000

     Initial potential from superposition of free atoms

     starting charge  255.96421, renormalised to  256.00000
     Starting wfcs are  256 randomized atomic wfcs

     Self-consistent Calculation

     iteration #  1     ecut=    50.00 Ry     beta= 0.70
     Davidson diagonalization with overlap
     ethr =  1.00E-02,  avg # of iterations =  3.0

     Threshold (ethr) on eigenvalues was too large:
     Diagonalizing with lowered threshold

     Davidson diagonalization with overlap
     ethr =  6.78E-04,  avg # of iterations =  2.0

     total energy              =    -730.80288969 Ry
     Harris-Foulkes estimate   =    -731.20902459 Ry
     estimated scf accuracy    <       1.72056008 Ry

[...]

     total energy              =    -730.88002103 Ry
     Harris-Foulkes estimate   =    -730.88002103 Ry
     estimated scf accuracy    <       0.00000001 Ry

     iteration # 12     ecut=    50.00 Ry     beta= 0.70
     Davidson diagonalization with overlap
     ethr =  4.33E-12,  avg # of iterations =  3.0

     End of self-consistent calculation

          k = 0.2500 0.2500 0.2500 ( 52563 PWs)   bands (ev):

    -5.6274  -5.1022  -5.0994  -5.0968  -4.6029  -4.6000  -4.5977  -4.1660
    -4.0696  -4.0670  -4.0644  -3.6588  -3.6569  -3.6508  -3.6495  -3.6492
    -3.6461  -3.4641  -3.4594  -3.4566  -2.9651  -2.9613  -2.9583  -2.5987
    -2.5944  -2.5911  -2.4339  -2.4306  -2.4257  -2.4240  -2.4229  -2.4206
    -0.8931  -0.8875  -0.8836  -0.8817  -0.8798  -0.8772  -0.7888  -0.7856
    -0.7821  -0.6688  -0.6680  -0.6617  -0.5946  -0.5828  -0.5817   0.1164
     0.2000   0.2004   0.2047   0.2068   0.2105   0.2142   1.0706   1.0779
     1.0814   1.4090   1.4119   1.4150   2.0182   2.0200   2.0220   2.0236
     2.0248   2.0261   2.0801   2.0833   2.0855   2.6297   2.6308   2.6334
     2.7326   2.7344   2.7357   2.7386   2.7419   2.7424   2.7898   2.7922
     2.7958   3.0952   3.0975   3.1005   3.1018   3.1029   3.1048   3.3639
     3.3654   3.3681   3.3779   3.3803   3.3839   3.7219   3.7262   3.7289
     3.7441   3.7463   3.7500   3.8312   3.8326   3.8369   4.0970   4.1001
     4.1056   4.1069   4.1080   4.1088   4.1454   4.1468   4.1517   4.4028
     4.4637   4.4649   4.4701   4.7066   4.7079   4.7134   4.7611   4.7696
     4.7714   4.9281   4.9329   5.2360   5.2373   5.2449   5.7167   5.7225
     6.9285   6.9324   6.9350   7.3673   7.3702   7.3764   7.5982   7.8543
     7.8577   7.8618   7.9815   7.9840   7.9882   8.1425   8.1454   8.1478
     8.1625   8.1646   8.1703   8.3888   8.3911   8.3949   8.3968   8.3973
     8.4008   8.4466

          k =-0.2500-0.2500 0.2500 ( 52563 PWs)   bands (ev):

[...]

          k =-0.2500 0.2500-0.2500 ( 52563 PWs)   bands (ev):

[...]

          k = 0.2500-0.2500-0.2500 ( 52563 PWs)   bands (ev):

    -5.6275  -5.1004  -5.0994  -5.0983  -4.6012  -4.6002  -4.5993  -4.1671
    -4.0689  -4.0674  -4.0657  -3.6598  -3.6538  -3.6519  -3.6508  -3.6489
    -3.6432  -3.4639  -3.4594  -3.4548  -2.9667  -2.9634  -2.9603  -2.5995
    -2.5942  -2.5893  -2.4346  -2.4291  -2.4262  -2.4258  -2.4231  -2.4173
    -0.8943  -0.8876  -0.8843  -0.8838  -0.8807  -0.8746  -0.7920  -0.7865
    -0.7811  -0.6735  -0.6682  -0.6622  -0.5890  -0.5821  -0.5748   0.1202
     0.1947   0.2002   0.2033   0.2059   0.2088   0.2146   1.0729   1.0791
     1.0852   1.4074   1.4120   1.4164   2.0166   2.0210   2.0221   2.0230
     2.0239   2.0275   2.0785   2.0814   2.0854   2.6303   2.6332   2.6362
     2.7298   2.7321   2.7358   2.7371   2.7403   2.7424   2.7861   2.7903
     2.7950   3.0955   3.0980   3.0999   3.1013   3.1034   3.1056   3.3630
     3.3647   3.3665   3.3754   3.3792   3.3833   3.7258   3.7279   3.7295
     3.7449   3.7498   3.7546   3.8291   3.8325   3.8356   4.0993   4.1056
     4.1060   4.1083   4.1085   4.1148   4.1429   4.1469   4.1506   4.4068
     4.4617   4.4639   4.4661   4.7035   4.7071   4.7111   4.7663   4.7719
     4.7786   4.9249   4.9337   5.2314   5.2366   5.2419   5.7122   5.7221
     6.9270   6.9301   6.9337   7.3649   7.3706   7.3761   7.5967   7.8513
     7.8564   7.8613   7.9813   7.9861   7.9905   8.1407   8.1453   8.1483
     8.1630   8.1650   8.1672   8.3897   8.3936   8.3958   8.3980   8.4002
     8.4031   8.4444

     the Fermi energy is     6.3204 ev

!    total energy              =    -730.88002103 Ry
     Harris-Foulkes estimate   =    -730.88002103 Ry
     estimated scf accuracy    <          1.7E-09 Ry

     The total energy is the sum of the following terms:

     one-electron contribution =     160.47291423 Ry
     hartree contribution      =      35.78732665 Ry
     xc contribution           =    -393.13399497 Ry
     ewald contribution        =    -534.00626694 Ry
     smearing contrib. (-TS)   =      -0.00000000 Ry

     convergence has been achieved in  12 iterations

     Forces acting on atoms (cartesian axes, Ry/au):

     atom    1 type  1   force =    -0.01612992    0.00000893    0.00004426
     atom    2 type  1   force =     0.00009925   -0.00000930    0.00004369
     atom    3 type  1   force =     0.00028426    0.00011481    0.00023739
     atom    4 type  1   force =    -0.00023550   -0.00011439    0.00023752
     atom    5 type  1   force =     0.00013233    0.00000946    0.00004409
     atom    6 type  1   force =    -0.00008311   -0.00000846    0.00004414
     atom    7 type  1   force =    -0.00070018    0.00010975    0.00023108
     atom    8 type  1   force =     0.00025022   -0.00011062    0.00023099
     atom    9 type  1   force =    -0.00064397    0.00000182   -0.00041540
     atom   10 type  1   force =    -0.00010848    0.00011850   -0.00051575
     atom   11 type  1   force =    -0.00041522   -0.00000013   -0.00063643
     atom   12 type  1   force =     0.00011682    0.00012393   -0.00054028
     atom   13 type  1   force =    -0.00053477   -0.00011811    0.00011088
     atom   14 type  1   force =    -0.00000634   -0.00000057    0.00001214
     atom   15 type  1   force =    -0.00052117   -0.00012457   -0.00011175
     atom   16 type  1   force =     0.00001032    0.00000046   -0.00000729
     atom   17 type  1   force =     0.00023159   -0.00011003    0.00027989
     atom   18 type  1   force =     0.00023699   -0.00011393   -0.00070500
     atom   19 type  1   force =     0.00004222   -0.00000976   -0.01613073
     atom   20 type  1   force =     0.00004454   -0.00000955    0.00013055
     atom   21 type  1   force =     0.00023138    0.00010961   -0.00023064
     atom   22 type  1   force =     0.00023656    0.00011409    0.00025438
     atom   23 type  1   force =     0.00004310    0.00000983    0.00010025
     atom   24 type  1   force =     0.00004504    0.00000913   -0.00008168
     atom   25 type  1   force =     0.00034565    0.00045322    0.00012676
     atom   26 type  1   force =     0.00024632   -0.00030436   -0.00007046
     atom   27 type  1   force =     0.00011664   -0.00045382    0.00034726
     atom   28 type  1   force =     0.00022840    0.00030420    0.00015776
     atom   29 type  1   force =     0.00015381   -0.00030120    0.00022098
     atom   30 type  1   force =     0.00005327    0.00015210    0.00003497
     atom   31 type  1   force =    -0.00006691    0.00030108    0.00024113
     atom   32 type  1   force =     0.00003514   -0.00015234    0.00005358
     atom   33 type  1   force =     0.00249026   -0.00248057    0.00387066
     atom   34 type  1   force =     0.00029562   -0.00002224   -0.00002880
     atom   35 type  1   force =     0.00007680   -0.00000856   -0.00003228
     atom   36 type  1   force =    -0.00003112    0.00002136    0.00029387
     atom   37 type  1   force =     0.00006373   -0.00001215    0.00001683
     atom   38 type  1   force =    -0.00003224    0.00000991    0.00007756
     atom   39 type  1   force =     0.00001903    0.00001095    0.00006573
     atom   40 type  1   force =     0.00398943    0.00270400    0.00271581
     atom   41 type  1   force =    -0.00005934   -0.00007569   -0.00009594
     atom   42 type  1   force =     0.00393092   -0.00276434   -0.00247820
     atom   43 type  1   force =    -0.00270945   -0.00276045    0.00393113
     atom   44 type  1   force =    -0.00009634   -0.00008794   -0.00010881
     atom   45 type  1   force =    -0.00000008   -0.00005218    0.00000145
     atom   46 type  1   force =    -0.00008992   -0.00007965   -0.00005828
     atom   47 type  1   force =    -0.00005802   -0.00006804   -0.00004055
     atom   48 type  1   force =     0.00023401   -0.00005524   -0.00000065
     atom   49 type  1   force =     0.00267787    0.00270040    0.00401041
     atom   50 type  1   force =     0.00006735    0.00002291   -0.00002998
     atom   51 type  1   force =     0.00388824   -0.00247282    0.00245171
     atom   52 type  1   force =     0.00001749   -0.00000891    0.00029489
     atom   53 type  1   force =     0.00029175    0.00000976    0.00001758
     atom   54 type  1   force =     0.00000549   -0.00000398    0.00005742
     atom   55 type  1   force =    -0.00002960   -0.00002577    0.00006306
     atom   56 type  1   force =     0.00005996    0.00000244    0.00000741
     atom   57 type  1   force =    -0.00010681    0.00008754   -0.00009279
     atom   58 type  1   force =     0.00000045    0.00005736    0.00022866
     atom   59 type  1   force =    -0.00225526    0.00253700    0.00381106
     atom   60 type  1   force =    -0.00005614    0.00008075   -0.00008751
     atom   61 type  1   force =     0.00381070    0.00253708   -0.00248152
     atom   62 type  1   force =    -0.00004156    0.00006794   -0.00005721
     atom   63 type  1   force =    -0.00009441    0.00007323   -0.00006089
     atom   64 type  1   force =     0.00000288    0.00005613   -0.00000012

     Total force =     0.027484     Total SCF correction =     0.000073

     Writing output data file pwscf.save/

     General routines

     Parallel routines

   This run was terminated on:  12:55: 0  14Feb2020

   JOB DONE.