     Program PWSCF v.6.3MaX starts on 14Feb2020 at 23: 4:47

     R & G space division:  proc/nbgrp/npool/nimage =       2
     Waiting for input...
     Reading input from standard input

     Current dimensions of program PWSCF are:
     Max number of different atomic species (ntypx) = 10
     Max number of k-points (npk) =  40000
     Max angular momentum in pseudopotentials (lmaxx) =  3

     Subspace diagonalization in iterative solution of the eigenvalue problem:
     a serial algorithm will be used

     Message from routine find_sym:
     Not a group! Trying with lower acceptance parameter...
     Message from routine find_sym:
     Still not a group! symmetry disabled

     bravais-lattice index     =            0
     lattice parameter (alat)  =      20.6591  a.u.
     unit-cell volume          =    8817.2783 (a.u.)^3
     number of atoms/cell      =           64
     number of atomic types    =            1
     number of electrons       =       256.00
     number of Kohn-Sham states=          154
     kinetic-energy cutoff     =      50.0000  Ry
     charge density cutoff     =     200.0000  Ry
     convergence threshold     =      1.0E-08
     mixing beta               =       0.7000
     number of iterations used =            8  plain     mixing
     Exchange-correlation      = PBE ( 1  4  3  4 0 0)

     celldm(1)=  20.659106  celldm(2)=   0.000000  celldm(3)=   0.000000
     celldm(4)=   0.000000  celldm(5)=   0.000000  celldm(6)=   0.000000

     crystal axes: (cart. coord. in units of alat)
               a(1) = (   1.000000   0.000000   0.000000 )
               a(2) = (   0.000000   1.000000   0.000000 )
               a(3) = (   0.000000   0.000000   1.000000 )

     reciprocal axes: (cart. coord. in units 2 pi/alat)
               b(1) = (  1.000000  0.000000  0.000000 )
               b(2) = (  0.000000  1.000000  0.000000 )
               b(3) = (  0.000000  0.000000  1.000000 )

     PseudoPot. # 1 for Si read from file:
     ~/kedar/softwares/SSSP_precision_pseudos/Si.pbe-n-rrkjus_psl.1.0.0.UPF
     MD5 check sum: Not computed, couldn't open file
     Pseudo is Ultrasoft + core correction, Zval =  4.0
     Generated using "atomic" code by A. Dal Corso v.5.1
     Using radial grid of 1141 points,  6 beta functions with:
                l(1) =   0
                l(2) =   0
                l(3) =   1
                l(4) =   1
                l(5) =   2
                l(6) =   2
     Q(r) pseudized with 0 coefficients

     atomic species   valence    mass     pseudopotential
        Si             4.00    28.08550     Si( 1.00)

     No symmetry found

   Cartesian axes

     site n.     atom                  positions (alat units)
         1           Si  tau(   1) = (   0.4404043   0.4375000   0.4375000  )
         2           Si  tau(   2) = (   0.9375000   0.4375000   0.4375000  )
         3           Si  tau(   3) = (   0.4375000   0.9375000   0.4375000  )
         4           Si  tau(   4) = (   0.9375000   0.9375000   0.4375000  )
         5           Si  tau(   5) = (   0.4375000   0.4375000   0.9375000  )
         6           Si  tau(   6) = (   0.9375000   0.4375000   0.9375000  )
         7           Si  tau(   7) = (   0.4375000   0.9375000   0.9375000  )
         8           Si  tau(   8) = (   0.9375000   0.9375000   0.9375000  )
         9           Si  tau(   9) = (   0.4375000   0.1875000   0.1875000  )
        10           Si  tau(  10) = (   0.9375000   0.1875000   0.1875000  )
        11           Si  tau(  11) = (   0.4375000   0.6875000   0.1875000  )
        12           Si  tau(  12) = (   0.9375000   0.6875000   0.1875000  )
        13           Si  tau(  13) = (   0.4375000   0.1875000   0.6875000  )
        14           Si  tau(  14) = (   0.9375000   0.1875000   0.6875000  )
        15           Si  tau(  15) = (   0.4375000   0.6875000   0.6875000  )
        16           Si  tau(  16) = (   0.9375000   0.6875000   0.6875000  )
        17           Si  tau(  17) = (   0.1875000   0.4375000   0.1875000  )
        18           Si  tau(  18) = (   0.6875000   0.4375000   0.1875000  )
        19           Si  tau(  19) = (   0.1875000   0.9375000   0.1875000  )
        20           Si  tau(  20) = (   0.6875000   0.9375000   0.1875000  )
        21           Si  tau(  21) = (   0.1875000   0.4375000   0.6875000  )
        22           Si  tau(  22) = (   0.6875000   0.4375000   0.6875000  )
        23           Si  tau(  23) = (   0.1875000   0.9375000   0.6875000  )
        24           Si  tau(  24) = (   0.6875000   0.9375000   0.6875000  )
        25           Si  tau(  25) = (   0.1875000   0.1875000   0.4375000  )
        26           Si  tau(  26) = (   0.6875000   0.1875000   0.4375000  )
        27           Si  tau(  27) = (   0.1875000   0.6875000   0.4375000  )
        28           Si  tau(  28) = (   0.6875000   0.6875000   0.4375000  )
        29           Si  tau(  29) = (   0.1875000   0.1875000   0.9375000  )
        30           Si  tau(  30) = (   0.6875000   0.1875000   0.9375000  )
        31           Si  tau(  31) = (   0.1875000   0.6875000   0.9375000  )
        32           Si  tau(  32) = (   0.6875000   0.6875000   0.9375000  )
        33           Si  tau(  33) = (   0.0625000   0.0625000   0.0625000  )
        34           Si  tau(  34) = (   0.5625000   0.0625000   0.0625000  )
        35           Si  tau(  35) = (   0.0625000   0.5625000   0.0625000  )
        36           Si  tau(  36) = (   0.5625000   0.5625000   0.0625000  )
        37           Si  tau(  37) = (   0.0625000   0.0625000   0.5625000  )
        38           Si  tau(  38) = (   0.5625000   0.0625000   0.5625000  )
        39           Si  tau(  39) = (   0.0625000   0.5625000   0.5625000  )
        40           Si  tau(  40) = (   0.5625000   0.5625000   0.5625000  )
        41           Si  tau(  41) = (   0.0625000   0.3125000   0.3125000  )
        42           Si  tau(  42) = (   0.5625000   0.3125000   0.3125000  )
        43           Si  tau(  43) = (   0.0625000   0.8125000   0.3125000  )
        44           Si  tau(  44) = (   0.5625000   0.8125000   0.3125000  )
        45           Si  tau(  45) = (   0.0625000   0.3125000   0.8125000  )
        46           Si  tau(  46) = (   0.5625000   0.3125000   0.8125000  )
        47           Si  tau(  47) = (   0.0625000   0.8125000   0.8125000  )
        48           Si  tau(  48) = (   0.5625000   0.8125000   0.8125000  )
        49           Si  tau(  49) = (   0.3125000   0.0625000   0.3125000  )
        50           Si  tau(  50) = (   0.8125000   0.0625000   0.3125000  )
        51           Si  tau(  51) = (   0.3125000   0.5625000   0.3125000  )
        52           Si  tau(  52) = (   0.8125000   0.5625000   0.3125000  )
        53           Si  tau(  53) = (   0.3095957   0.0625000   0.8125000  )
        54           Si  tau(  54) = (   0.8125000   0.0625000   0.8125000  )
        55           Si  tau(  55) = (   0.3125000   0.5625000   0.8125000  )
        56           Si  tau(  56) = (   0.8125000   0.5625000   0.8125000  )
        57           Si  tau(  57) = (   0.3125000   0.3125000   0.0625000  )
        58           Si  tau(  58) = (   0.8125000   0.3125000   0.0625000  )
        59           Si  tau(  59) = (   0.3125000   0.8125000   0.0625000  )
        60           Si  tau(  60) = (   0.8125000   0.8125000   0.0625000  )
        61           Si  tau(  61) = (   0.3125000   0.3125000   0.5625000  )
        62           Si  tau(  62) = (   0.8125000   0.3125000   0.5625000  )
        63           Si  tau(  63) = (   0.3125000   0.8125000   0.5625000  )
        64           Si  tau(  64) = (   0.8125000   0.8125000   0.5625000  )

     number of k points=     4  gaussian smearing, width (Ry)=  0.0100
                       cart. coord. in units 2pi/alat
        k(    1) = (   0.2500000   0.2500000   0.2500000), wk =   0.5000000
        k(    2) = (   0.2500000  -0.2500000  -0.2500000), wk =   0.5000000
        k(    3) = (   0.2500000   0.2500000  -0.2500000), wk =   0.5000000
        k(    4) = (   0.2500000  -0.2500000   0.2500000), wk =   0.5000000

     Check: negative/imaginary core charge=   -0.000001    0.000000

     Initial potential from superposition of free atoms

     starting charge  255.96421, renormalised to  256.00000
     Starting wfcs are  256 randomized atomic wfcs

     Self-consistent Calculation

     iteration #  1     ecut=    50.00 Ry     beta= 0.70
     Davidson diagonalization with overlap
     ethr =  1.00E-02,  avg # of iterations =  3.0

     Threshold (ethr) on eigenvalues was too large:
     Diagonalizing with lowered threshold

     Davidson diagonalization with overlap
     ethr =  6.78E-04,  avg # of iterations =  2.0

     total energy              =    -730.80281832 Ry
     Harris-Foulkes estimate   =    -731.20889889 Ry
     estimated scf accuracy    <       1.72043020 Ry

[...]

     total energy              =    -730.88001048 Ry
     Harris-Foulkes estimate   =    -730.88001049 Ry
     estimated scf accuracy    <       0.00000002 Ry

     iteration # 12     ecut=    50.00 Ry     beta= 0.70
     Davidson diagonalization with overlap
     ethr =  8.14E-12,  avg # of iterations =  2.5

     End of self-consistent calculation

          k = 0.2500 0.2500 0.2500 ( 52563 PWs)   bands (ev):

    -5.6274  -5.1041  -5.0983  -5.0960  -4.6047  -4.5992  -4.5968  -4.1661
    -4.0715  -4.0661  -4.0633  -3.6620  -3.6557  -3.6499  -3.6498  -3.6474
    -3.6466  -3.4620  -3.4613  -3.4568  -2.9651  -2.9618  -2.9578  -2.5980
    -2.5954  -2.5907  -2.4361  -2.4299  -2.4252  -2.4246  -2.4218  -2.4205
    -0.8952  -0.8867  -0.8826  -0.8809  -0.8795  -0.8776  -0.7904  -0.7848
    -0.7817  -0.6729  -0.6629  -0.6625  -0.5923  -0.5859  -0.5808   0.1164
     0.1956   0.2029   0.2063   0.2088   0.2108   0.2122   1.0709   1.0779
     1.0810   1.4067   1.4138   1.4154   2.0178   2.0188   2.0224   2.0226
     2.0254   2.0278   2.0798   2.0841   2.0847   2.6284   2.6322   2.6334
     2.7321   2.7339   2.7362   2.7372   2.7422   2.7438   2.7869   2.7945
     2.7970   3.0926   3.0997   3.0999   3.1016   3.1035   3.1053   3.3644
     3.3652   3.3685   3.3753   3.3829   3.3833   3.7206   3.7277   3.7281
     3.7448   3.7465   3.7496   3.8305   3.8339   3.8362   4.0973   4.0998
     4.1046   4.1064   4.1085   4.1095   4.1447   4.1482   4.1511   4.4026
     4.4642   4.4649   4.4696   4.7055   4.7095   4.7127   4.7633   4.7675
     4.7715   4.9255   4.9355   5.2349   5.2391   5.2442   5.7138   5.7255
     6.9304   6.9305   6.9349   7.3666   7.3708   7.3765   7.5982   7.8534
     7.8574   7.8629   7.9806   7.9861   7.9870   8.1425   8.1436   8.1487
     8.1634   8.1646   8.1704   8.3868   8.3924   8.3947   8.3963   8.3990
     8.4008   8.4466

[...]

          k = 0.2500-0.2500 0.2500 ( 52563 PWs)   bands (ev):

    -5.6275  -5.1031  -5.1008  -5.0938  -4.6041  -4.6018  -4.5950  -4.1683
    -4.0717  -4.0689  -4.0624  -3.6551  -3.6542  -3.6538  -3.6513  -3.6506
    -3.6406  -3.4624  -3.4614  -3.4519  -2.9702  -2.9654  -2.9605  -2.5972
    -2.5948  -2.5902  -2.4308  -2.4290  -2.4289  -2.4262  -2.4258  -2.4133
    -0.8907  -0.8898  -0.8873  -0.8840  -0.8839  -0.8724  -0.7903  -0.7867
    -0.7850  -0.6756  -0.6700  -0.6636  -0.5845  -0.5762  -0.5725   0.1238
     0.1976   0.1979   0.2009   0.2034   0.2049   0.2138   1.0755   1.0797
     1.0893   1.4080   1.4103   1.4174   2.0160   2.0194   2.0221   2.0230
     2.0240   2.0289   2.0791   2.0797   2.0834   2.6336   2.6343   2.6377
     2.7282   2.7283   2.7357   2.7382   2.7387   2.7398   2.7842   2.7870
     2.7935   3.0937   3.0984   3.0996   3.1002   3.1028   3.1098   3.3590
     3.3646   3.3665   3.3753   3.3764   3.3830   3.7266   3.7272   3.7354
     3.7487   3.7517   3.7586   3.8280   3.8306   3.8351   4.1043   4.1058
     4.1071   4.1098   4.1123   4.1201   4.1416   4.1442   4.1503   4.4106
     4.4566   4.4632   4.4653   4.7017   4.7050   4.7088   4.7719   4.7760
     4.7837   4.9229   4.9331   5.2293   5.2331   5.2392   5.7091   5.7204
     6.9251   6.9265   6.9340   7.3644   7.3690   7.3758   7.5952   7.8496
     7.8542   7.8605   7.9816   7.9901   7.9902   8.1378   8.1467   8.1478
     8.1602   8.1649   8.1681   8.3914   8.3958   8.3959   8.3985   8.4023
     8.4071   8.4420

     the Fermi energy is     6.3203 ev

!    total energy              =    -730.88001049 Ry
     Harris-Foulkes estimate   =    -730.88001049 Ry
     estimated scf accuracy    <          2.5E-09 Ry

     The total energy is the sum of the following terms:

     one-electron contribution =     160.47296859 Ry
     hartree contribution      =      35.78729818 Ry
     xc contribution           =    -393.13399082 Ry
     ewald contribution        =    -534.00628644 Ry
     smearing contrib. (-TS)   =      -0.00000000 Ry

     convergence has been achieved in  12 iterations

     Forces acting on atoms (cartesian axes, Ry/au):

     atom    1 type  1   force =    -0.01630641    0.00002806   -0.00002794
     atom    2 type  1   force =     0.00004444    0.00003078   -0.00003083
     atom    3 type  1   force =     0.00011214    0.00004986   -0.00003511
     atom    4 type  1   force =    -0.00003501    0.00002988   -0.00002705
     atom    5 type  1   force =     0.00011239    0.00003683   -0.00005097
     atom    6 type  1   force =    -0.00003523    0.00002646   -0.00002832
     atom    7 type  1   force =    -0.00431277    0.00251031   -0.00251115
     atom    8 type  1   force =     0.00003554    0.00003654   -0.00003711
     atom    9 type  1   force =    -0.00047464    0.00006465    0.00015076
     atom   10 type  1   force =    -0.00002636   -0.00002078    0.00003585
     atom   11 type  1   force =    -0.00077989    0.00008195   -0.00008197
     atom   12 type  1   force =     0.00002164   -0.00002121    0.00002056
     atom   13 type  1   force =    -0.00436406   -0.00261948    0.00261915
     atom   14 type  1   force =     0.00001290   -0.00004666    0.00004637
     atom   15 type  1   force =    -0.00047306   -0.00015038   -0.00006404
     atom   16 type  1   force =    -0.00002791   -0.00003504    0.00002065
     atom   17 type  1   force =    -0.00002766   -0.00013917    0.00019671
     atom   18 type  1   force =     0.00025781   -0.00014510   -0.00026128
     atom   19 type  1   force =     0.00010206   -0.00005730   -0.00011437
     atom   20 type  1   force =     0.00001800   -0.00003738    0.00004999
     atom   21 type  1   force =     0.00029040    0.00007227   -0.00027409
     atom   22 type  1   force =     0.00021033    0.00009015    0.00020305
     atom   23 type  1   force =    -0.00391352   -0.00272682   -0.00265852
     atom   24 type  1   force =     0.00005336   -0.00002883   -0.00011216
     atom   25 type  1   force =     0.00028947    0.00027330   -0.00007288
     atom   26 type  1   force =     0.00021123   -0.00020287   -0.00008907
     atom   27 type  1   force =    -0.00002716   -0.00019683    0.00013853
     atom   28 type  1   force =     0.00025699    0.00026165    0.00014642
     atom   29 type  1   force =    -0.00391439    0.00265855    0.00272728
     atom   30 type  1   force =     0.00005402    0.00011176    0.00002746
     atom   31 type  1   force =     0.00010306    0.00011530    0.00005812
     atom   32 type  1   force =     0.00001714   -0.00005038    0.00003625
     atom   33 type  1   force =    -0.00025706    0.00014624    0.00026116
     atom   34 type  1   force =     0.00002772    0.00013751   -0.00019813
     atom   35 type  1   force =    -0.00001793    0.00003629   -0.00005031
     atom   36 type  1   force =    -0.00010222    0.00005878    0.00011445
     atom   37 type  1   force =    -0.00021044   -0.00008938   -0.00020278
     atom   38 type  1   force =    -0.00029023   -0.00007362    0.00027440
     atom   39 type  1   force =    -0.00005391    0.00002817    0.00011219
     atom   40 type  1   force =     0.00391430    0.00272777    0.00265923
     atom   41 type  1   force =    -0.00005373   -0.00011323   -0.00002851
     atom   42 type  1   force =     0.00391351   -0.00265819   -0.00272674
     atom   43 type  1   force =    -0.00001734    0.00005131   -0.00003683
     atom   44 type  1   force =    -0.00010212   -0.00011533   -0.00005801
     atom   45 type  1   force =    -0.00021037    0.00020166    0.00008994
     atom   46 type  1   force =    -0.00028977   -0.00027354    0.00007255
     atom   47 type  1   force =    -0.00025768   -0.00026037   -0.00014585
     atom   48 type  1   force =     0.00002741    0.00019706   -0.00013872
     atom   49 type  1   force =    -0.00011336   -0.00003604    0.00005023
     atom   50 type  1   force =     0.00003555   -0.00002714    0.00002969
     atom   51 type  1   force =     0.00431372   -0.00251057    0.00251090
     atom   52 type  1   force =    -0.00003599   -0.00003632    0.00003603
     atom   53 type  1   force =     0.01630632   -0.00002814    0.00002727
     atom   54 type  1   force =    -0.00004460   -0.00003152    0.00003145
     atom   55 type  1   force =    -0.00011134   -0.00004997    0.00003645
     atom   56 type  1   force =     0.00003406   -0.00002868    0.00002654
     atom   57 type  1   force =     0.00047285   -0.00006498   -0.00015069
     atom   58 type  1   force =     0.00002786    0.00002120   -0.00003610
     atom   59 type  1   force =     0.00078061   -0.00008213    0.00008124
     atom   60 type  1   force =    -0.00002243    0.00002139   -0.00002106
     atom   61 type  1   force =     0.00436347    0.00261878   -0.00261872
     atom   62 type  1   force =    -0.00001249    0.00004606   -0.00004631
     atom   63 type  1   force =     0.00047414    0.00015150    0.00006478
     atom   64 type  1   force =     0.00002668    0.00003536   -0.00002001

     Total force =     0.027991     Total SCF correction =     0.000089

     Writing output data file pwscf.save/

     General routines

     Parallel routines

   This run was terminated on:  23:38:29  14Feb2020

   JOB DONE.