     Program PWSCF v.6.3MaX starts on 14Feb2020 at 21: 1:48

     R & G space division:  proc/nbgrp/npool/nimage =       2
     Waiting for input...
     Reading input from standard input

     Current dimensions of program PWSCF are:
     Max number of different atomic species (ntypx) = 10
     Max number of k-points (npk) =  40000
     Max angular momentum in pseudopotentials (lmaxx) =  3

     Subspace diagonalization in iterative solution of the eigenvalue problem:
     a serial algorithm will be used

     bravais-lattice index     =            0
     lattice parameter (alat)  =      20.6591  a.u.
     unit-cell volume          =    8817.2783 (a.u.)^3
     number of atoms/cell      =           64
     number of atomic types    =            1
     number of electrons       =       256.00
     number of Kohn-Sham states=          154
     kinetic-energy cutoff     =      50.0000  Ry
     charge density cutoff     =     200.0000  Ry
     convergence threshold     =      1.0E-08
     mixing beta               =       0.7000
     number of iterations used =            8  plain     mixing
     Exchange-correlation      = PBE ( 1  4  3  4 0 0)

     celldm(1)=  20.659106  celldm(2)=   0.000000  celldm(3)=   0.000000
     celldm(4)=   0.000000  celldm(5)=   0.000000  celldm(6)=   0.000000

     crystal axes: (cart. coord. in units of alat)
               a(1) = (   1.000000   0.000000   0.000000 )
               a(2) = (   0.000000   1.000000   0.000000 )
               a(3) = (   0.000000   0.000000   1.000000 )

     reciprocal axes: (cart. coord. in units 2 pi/alat)
               b(1) = (  1.000000  0.000000  0.000000 )
               b(2) = (  0.000000  1.000000  0.000000 )
               b(3) = (  0.000000  0.000000  1.000000 )

     PseudoPot. # 1 for Si read from file:
     ~/kedar/softwares/SSSP_precision_pseudos/Si.pbe-n-rrkjus_psl.1.0.0.UPF
     MD5 check sum: Not computed, couldn't open file
     Pseudo is Ultrasoft + core correction, Zval =  4.0
     Generated using "atomic" code by A. Dal Corso v.5.1
     Using radial grid of 1141 points,  6 beta functions with:
                l(1) =   0
                l(2) =   0
                l(3) =   1
                l(4) =   1
                l(5) =   2
                l(6) =   2
     Q(r) pseudized with 0 coefficients

     atomic species   valence    mass     pseudopotential
        Si             4.00    28.08550     Si( 1.00)

      2 Sym. Ops. (no inversion) found ( 1 have fractional translation)

   Cartesian axes

     site n.     atom                  positions (alat units)
         1           Si  tau(   1) = (   0.4404043   0.4375000   0.4375000  )
         2           Si  tau(   2) = (   0.9375000   0.4375000   0.4375000  )
         3           Si  tau(   3) = (   0.4375000   0.9375000   0.4375000  )
         4           Si  tau(   4) = (   0.9375000   0.9375000   0.4375000  )
         5           Si  tau(   5) = (   0.4375000   0.4375000   0.9375000  )
         6           Si  tau(   6) = (   0.9375000   0.4375000   0.9375000  )
         7           Si  tau(   7) = (   0.4375000   0.9375000   0.9375000  )
         8           Si  tau(   8) = (   0.9375000   0.9375000   0.9375000  )
         9           Si  tau(   9) = (   0.4375000   0.1875000   0.1875000  )
        10           Si  tau(  10) = (   0.9375000   0.1875000   0.1875000  )
        11           Si  tau(  11) = (   0.4375000   0.6875000   0.1875000  )
        12           Si  tau(  12) = (   0.9375000   0.6875000   0.1875000  )
        13           Si  tau(  13) = (   0.4375000   0.1875000   0.6875000  )
        14           Si  tau(  14) = (   0.9375000   0.1875000   0.6875000  )
        15           Si  tau(  15) = (   0.4375000   0.6875000   0.6875000  )
        16           Si  tau(  16) = (   0.9375000   0.6875000   0.6875000  )
        17           Si  tau(  17) = (   0.1875000   0.4375000   0.1875000  )
        18           Si  tau(  18) = (   0.6875000   0.4375000   0.1875000  )
        19           Si  tau(  19) = (   0.1875000   0.9375000   0.1875000  )
        20           Si  tau(  20) = (   0.6875000   0.9375000   0.1875000  )
        21           Si  tau(  21) = (   0.1875000   0.4375000   0.6875000  )
        22           Si  tau(  22) = (   0.6875000   0.4375000   0.6875000  )
        23           Si  tau(  23) = (   0.1875000   0.9375000   0.6875000  )
        24           Si  tau(  24) = (   0.6875000   0.9375000   0.6875000  )
        25           Si  tau(  25) = (   0.1875000   0.1875000   0.4375000  )
        26           Si  tau(  26) = (   0.6875000   0.1875000   0.4375000  )
        27           Si  tau(  27) = (   0.1875000   0.6875000   0.4375000  )
        28           Si  tau(  28) = (   0.6875000   0.6875000   0.4375000  )
        29           Si  tau(  29) = (   0.1875000   0.1875000   0.9375000  )
        30           Si  tau(  30) = (   0.6875000   0.1875000   0.9375000  )
        31           Si  tau(  31) = (   0.1875000   0.6875000   0.9375000  )
        32           Si  tau(  32) = (   0.6875000   0.6875000   0.9375000  )
        33           Si  tau(  33) = (   0.0625000   0.0625000   0.0625000  )
        34           Si  tau(  34) = (   0.5625000   0.0625000   0.0625000  )
        35           Si  tau(  35) = (   0.0625000   0.5625000   0.0625000  )
        36           Si  tau(  36) = (   0.5625000   0.5625000   0.0625000  )
        37           Si  tau(  37) = (   0.0625000   0.0625000   0.5625000  )
        38           Si  tau(  38) = (   0.5625000   0.0625000   0.5625000  )
        39           Si  tau(  39) = (   0.0625000   0.5625000   0.5625000  )
        40           Si  tau(  40) = (   0.5625000   0.5625000   0.5625000  )
        41           Si  tau(  41) = (   0.0625000   0.3125000   0.3125000  )
        42           Si  tau(  42) = (   0.5625000   0.3125000   0.3125000  )
        43           Si  tau(  43) = (   0.0625000   0.8125000   0.3125000  )
        44           Si  tau(  44) = (   0.5625000   0.8125000   0.3125000  )
        45           Si  tau(  45) = (   0.0625000   0.3125000   0.8125000  )
        46           Si  tau(  46) = (   0.5625000   0.3125000   0.8125000  )
        47           Si  tau(  47) = (   0.0625000   0.8125000   0.8125000  )
        48           Si  tau(  48) = (   0.5625000   0.8125000   0.8125000  )
        49           Si  tau(  49) = (   0.3125000   0.0625000   0.3125000  )
        50           Si  tau(  50) = (   0.8125000   0.0625000   0.3125000  )
        51           Si  tau(  51) = (   0.3125000   0.5654043   0.3125000  )
        52           Si  tau(  52) = (   0.8125000   0.5625000   0.3125000  )
        53           Si  tau(  53) = (   0.3125000   0.0625000   0.8125000  )
        54           Si  tau(  54) = (   0.8125000   0.0625000   0.8125000  )
        55           Si  tau(  55) = (   0.3125000   0.5625000   0.8125000  )
        56           Si  tau(  56) = (   0.8125000   0.5625000   0.8125000  )
        57           Si  tau(  57) = (   0.3125000   0.3125000   0.0625000  )
        58           Si  tau(  58) = (   0.8125000   0.3125000   0.0625000  )
        59           Si  tau(  59) = (   0.3125000   0.8125000   0.0625000  )
        60           Si  tau(  60) = (   0.8125000   0.8125000   0.0625000  )
        61           Si  tau(  61) = (   0.3125000   0.3125000   0.5625000  )
        62           Si  tau(  62) = (   0.8125000   0.3125000   0.5625000  )
        63           Si  tau(  63) = (   0.3125000   0.8125000   0.5625000  )
        64           Si  tau(  64) = (   0.8125000   0.8125000   0.5625000  )

     number of k points=     3  gaussian smearing, width (Ry)=  0.0100
                       cart. coord. in units 2pi/alat
        k(    1) = (   0.2500000   0.2500000   0.2500000), wk =   1.0000000
        k(    2) = (  -0.2500000   0.2500000  -0.2500000), wk =   0.5000000
        k(    3) = (   0.2500000  -0.2500000  -0.2500000), wk =   0.5000000

     Check: negative/imaginary core charge=   -0.000001    0.000000

     Initial potential from superposition of free atoms

     starting charge  255.96421, renormalised to  256.00000
     Starting wfcs are  256 randomized atomic wfcs

     Self-consistent Calculation

     iteration #  1     ecut=    50.00 Ry     beta= 0.70
     Davidson diagonalization with overlap
     ethr =  1.00E-02,  avg # of iterations =  3.0

     Threshold (ethr) on eigenvalues was too large:
     Diagonalizing with lowered threshold

     Davidson diagonalization with overlap
     ethr =  6.78E-04,  avg # of iterations =  2.0

     total energy              =    -730.80252363 Ry
     Harris-Foulkes estimate   =    -731.20862418 Ry
     estimated scf accuracy    <       1.72044649 Ry

[...]

     total energy              =    -730.87988147 Ry
     Harris-Foulkes estimate   =    -730.87988148 Ry
     estimated scf accuracy    <       0.00000002 Ry

     iteration # 12     ecut=    50.00 Ry     beta= 0.70
     Davidson diagonalization with overlap
     ethr =  8.12E-12,  avg # of iterations =  3.0

     End of self-consistent calculation

          k = 0.2500 0.2500 0.2500 ( 52563 PWs)   bands (ev):

    -5.6275  -5.1019  -5.1000  -5.0962  -4.6027  -4.6009  -4.5972  -4.1671
    -4.0700  -4.0682  -4.0639  -3.6603  -3.6538  -3.6515  -3.6514  -3.6498
    -3.6420  -3.4639  -3.4594  -3.4548  -2.9663  -2.9651  -2.9591  -2.5996
    -2.5943  -2.5894  -2.4346  -2.4291  -2.4263  -2.4258  -2.4241  -2.4162
    -0.8944  -0.8879  -0.8842  -0.8839  -0.8816  -0.8741  -0.7916  -0.7865
    -0.7809  -0.6737  -0.6683  -0.6619  -0.5867  -0.5831  -0.5762   0.1201
     0.1953   0.2001   0.2038   0.2044   0.2077   0.2162   1.0743   1.0784
     1.0845   1.4078   1.4118   1.4163   2.0179   2.0204   2.0213   2.0225
     2.0253   2.0270   2.0788   2.0811   2.0851   2.6302   2.6333   2.6361
     2.7314   2.7328   2.7347   2.7369   2.7396   2.7423   2.7856   2.7902
     2.7951   3.0955   3.0980   3.0998   3.1002   3.1023   3.1077   3.3625
     3.3644   3.3669   3.3752   3.3796   3.3835   3.7248   3.7280   3.7301
     3.7453   3.7494   3.7549   3.8294   3.8318   3.8362   4.1002   4.1050
     4.1060   4.1071   4.1084   4.1157   4.1431   4.1458   4.1514   4.4065
     4.4605   4.4638   4.4676   4.7036   4.7067   4.7114   4.7680   4.7715
     4.7771   4.9249   4.9337   5.2317   5.2359   5.2424   5.7123   5.7221
     6.9270   6.9296   6.9340   7.3649   7.3704   7.3762   7.5967   7.8511
     7.8563   7.8613   7.9815   7.9861   7.9904   8.1407   8.1452   8.1481
     8.1620   8.1636   8.1695   8.3902   8.3942   8.3963   8.3964   8.3992
     8.4040   8.4445

          k =-0.2500 0.2500-0.2500 ( 52563 PWs)   bands (ev):

[...]

          k = 0.2500-0.2500-0.2500 ( 52563 PWs)   bands (ev):

    -5.6274  -5.1026  -5.0998  -5.0960  -4.6030  -4.6007  -4.5970  -4.1661
    -4.0705  -4.0675  -4.0630  -3.6598  -3.6556  -3.6514  -3.6508  -3.6483
    -3.6457  -3.4647  -3.4590  -3.4566  -2.9655  -2.9627  -2.9568  -2.6008
    -2.5928  -2.5908  -2.4346  -2.4286  -2.4263  -2.4258  -2.4220  -2.4207
    -0.8943  -0.8855  -0.8840  -0.8836  -0.8789  -0.8768  -0.7912  -0.7837
    -0.7815  -0.6701  -0.6675  -0.6611  -0.5942  -0.5830  -0.5818   0.1164
     0.1970   0.2033   0.2042   0.2047   0.2118   0.2155   1.0699   1.0786
     1.0814   1.4083   1.4125   1.4151   2.0172   2.0198   2.0225   2.0232
     2.0246   2.0283   2.0795   2.0831   2.0854   2.6284   2.6320   2.6335
     2.7326   2.7347   2.7360   2.7376   2.7402   2.7449   2.7875   2.7938
     2.7961   3.0954   3.0976   3.0999   3.1006   3.1021   3.1071   3.3641
     3.3654   3.3681   3.3772   3.3810   3.3837   3.7235   3.7250   3.7287
     3.7430   3.7471   3.7498   3.8316   3.8326   3.8366   4.0965   4.1001
     4.1060   4.1070   4.1080   4.1087   4.1456   4.1467   4.1514   4.4025
     4.4640   4.4649   4.4700   4.7069   4.7078   4.7133   4.7609   4.7699
     4.7713   4.9280   4.9330   5.2362   5.2372   5.2447   5.7166   5.7225
     6.9286   6.9323   6.9350   7.3671   7.3694   7.3775   7.5982   7.8540
     7.8568   7.8629   7.9813   7.9832   7.9891   8.1423   8.1432   8.1495
     8.1625   8.1645   8.1712   8.3893   8.3920   8.3933   8.3970   8.3980
     8.4000   8.4468

     the Fermi energy is     6.3206 ev

!    total energy              =    -730.87988147 Ry
     Harris-Foulkes estimate   =    -730.87988147 Ry
     estimated scf accuracy    <          3.2E-09 Ry

     The total energy is the sum of the following terms:

     one-electron contribution =     160.47112510 Ry
     hartree contribution      =      35.78815180 Ry
     xc contribution           =    -393.13418552 Ry
     ewald contribution        =    -534.00497285 Ry
     smearing contrib. (-TS)   =      -0.00000000 Ry

     convergence has been achieved in  12 iterations

     Forces acting on atoms (cartesian axes, Ry/au):

     atom    1 type  1   force =    -0.01835010    0.00361921   -0.00221483
     atom    2 type  1   force =    -0.00001134   -0.00005725   -0.00005134
     atom    3 type  1   force =     0.00001822   -0.00000875   -0.00003681
     atom    4 type  1   force =    -0.00003246    0.00002831   -0.00002792
     atom    5 type  1   force =     0.00000528   -0.00005742   -0.00003707
     atom    6 type  1   force =    -0.00003370    0.00025584   -0.00002710
     atom    7 type  1   force =    -0.00050504    0.00002917   -0.00002822
     atom    8 type  1   force =    -0.00000457   -0.00002108   -0.00002998
     atom    9 type  1   force =    -0.00049236    0.00010416    0.00007747
     atom   10 type  1   force =     0.00002622    0.00003662   -0.00001645
     atom   11 type  1   force =     0.00220997    0.00407273   -0.00284186
     atom   12 type  1   force =     0.00004121   -0.00004973   -0.00005906
     atom   13 type  1   force =    -0.00049870   -0.00008206    0.00008415
     atom   14 type  1   force =     0.00003238   -0.00002936   -0.00002246
     atom   15 type  1   force =    -0.00048273   -0.00017412   -0.00015180
     atom   16 type  1   force =     0.00002991    0.00024960   -0.00003740
     atom   17 type  1   force =     0.00274084    0.00373252    0.00274205
     atom   18 type  1   force =     0.00027479   -0.00017242   -0.00017935
     atom   19 type  1   force =     0.00008023   -0.00001939   -0.00003967
     atom   20 type  1   force =     0.00007022    0.00001966    0.00010441
     atom   21 type  1   force =     0.00028144    0.00005333   -0.00018794
     atom   22 type  1   force =     0.00026398    0.00036772    0.00025948
     atom   23 type  1   force =     0.00007390    0.00003762    0.00010258
     atom   24 type  1   force =     0.00007483   -0.00000942   -0.00004500
     atom   25 type  1   force =     0.00019358    0.00021415   -0.00007250
     atom   26 type  1   force =     0.00021120   -0.00020305   -0.00008539
     atom   27 type  1   force =    -0.00250631    0.00373471    0.00285066
     atom   28 type  1   force =     0.00020021    0.00017035    0.00016342
     atom   29 type  1   force =     0.00001755   -0.00004942    0.00001557
     atom   30 type  1   force =     0.00001183    0.00005606    0.00002097
     atom   31 type  1   force =    -0.00000619    0.00001872    0.00004681
     atom   32 type  1   force =     0.00001586    0.00018285    0.00003797
     atom   33 type  1   force =    -0.00002936    0.00003238    0.00002246
     atom   34 type  1   force =     0.00024960    0.00002991    0.00003740
     atom   35 type  1   force =    -0.00008206   -0.00049870   -0.00008415
     atom   36 type  1   force =    -0.00017412   -0.00048273    0.00015180
     atom   37 type  1   force =     0.00003662    0.00002622    0.00001645
     atom   38 type  1   force =    -0.00004973    0.00004121    0.00005906
     atom   39 type  1   force =     0.00010416   -0.00049236   -0.00007747
     atom   40 type  1   force =     0.00407273    0.00220997    0.00284186
     atom   41 type  1   force =     0.00021415    0.00019358    0.00007250
     atom   42 type  1   force =     0.00373471   -0.00250631   -0.00285066
     atom   43 type  1   force =    -0.00020305    0.00021120    0.00008539
     atom   44 type  1   force =     0.00017035    0.00020021   -0.00016342
     atom   45 type  1   force =    -0.00004942    0.00001755   -0.00001557
     atom   46 type  1   force =     0.00001872   -0.00000619   -0.00004681
     atom   47 type  1   force =     0.00005606    0.00001183   -0.00002097
     atom   48 type  1   force =     0.00018285    0.00001586   -0.00003797
     atom   49 type  1   force =    -0.00005725   -0.00001134    0.00005134
     atom   50 type  1   force =     0.00002831   -0.00003246    0.00002792
     atom   51 type  1   force =     0.00361921   -0.01835010    0.00221483
     atom   52 type  1   force =    -0.00000875    0.00001822    0.00003681
     atom   53 type  1   force =     0.00025584   -0.00003370    0.00002710
     atom   54 type  1   force =    -0.00002108   -0.00000457    0.00002998
     atom   55 type  1   force =    -0.00005742    0.00000528    0.00003707
     atom   56 type  1   force =     0.00002917   -0.00050504    0.00002822
     atom   57 type  1   force =     0.00005333    0.00028144    0.00018794
     atom   58 type  1   force =     0.00003762    0.00007390   -0.00010258
     atom   59 type  1   force =     0.00036772    0.00026398   -0.00025948
     atom   60 type  1   force =    -0.00000942    0.00007483    0.00004500
     atom   61 type  1   force =     0.00373252    0.00274084   -0.00274205
     atom   62 type  1   force =    -0.00001939    0.00008023    0.00003967
     atom   63 type  1   force =    -0.00017242    0.00027479    0.00017935
     atom   64 type  1   force =     0.00001966    0.00007022   -0.00010441

     Total force =     0.029790     Total SCF correction =     0.000101

     Writing output data file pwscf.save/

     General routines

     Parallel routines

   This run was terminated on:  21:36:51  14Feb2020

   JOB DONE.