     Program PWSCF v.6.3MaX starts on 14Feb2020 at 19:33:22

     R & G space division:  proc/nbgrp/npool/nimage =       2
     Waiting for input...
     Reading input from standard input

     Current dimensions of program PWSCF are:
     Max number of different atomic species (ntypx) = 10
     Max number of k-points (npk) =  40000
     Max angular momentum in pseudopotentials (lmaxx) =  3

     Subspace diagonalization in iterative solution of the eigenvalue problem:
     a serial algorithm will be used

     bravais-lattice index     =            0
     lattice parameter (alat)  =      20.6591  a.u.
     unit-cell volume          =    8817.2783 (a.u.)^3
     number of atoms/cell      =           64
     number of atomic types    =            1
     number of electrons       =       256.00
     number of Kohn-Sham states=          154
     kinetic-energy cutoff     =      50.0000  Ry
     charge density cutoff     =     200.0000  Ry
     convergence threshold     =      1.0E-08
     mixing beta               =       0.7000
     number of iterations used =            8  plain     mixing
     Exchange-correlation      = PBE ( 1  4  3  4 0 0)

     celldm(1)=  20.659106  celldm(2)=   0.000000  celldm(3)=   0.000000
     celldm(4)=   0.000000  celldm(5)=   0.000000  celldm(6)=   0.000000

     crystal axes: (cart. coord. in units of alat)
               a(1) = (   1.000000   0.000000   0.000000 )
               a(2) = (   0.000000   1.000000   0.000000 )
               a(3) = (   0.000000   0.000000   1.000000 )

     reciprocal axes: (cart. coord. in units 2 pi/alat)
               b(1) = (  1.000000  0.000000  0.000000 )
               b(2) = (  0.000000  1.000000  0.000000 )
               b(3) = (  0.000000  0.000000  1.000000 )

     PseudoPot. # 1 for Si read from file:
     ~/kedar/softwares/SSSP_precision_pseudos/Si.pbe-n-rrkjus_psl.1.0.0.UPF
     MD5 check sum: Not computed, couldn't open file
     Pseudo is Ultrasoft + core correction, Zval =  4.0
     Generated using "atomic" code by A. Dal Corso v.5.1
     Using radial grid of 1141 points,  6 beta functions with:
                l(1) =   0
                l(2) =   0
                l(3) =   1
                l(4) =   1
                l(5) =   2
                l(6) =   2
     Q(r) pseudized with 0 coefficients

     atomic species   valence    mass     pseudopotential
        Si             4.00    28.08550     Si( 1.00)

     No symmetry found

   Cartesian axes

     site n.     atom                  positions (alat units)
         1           Si  tau(   1) = (   0.4404043   0.4375000   0.4375000  )
         2           Si  tau(   2) = (   0.9375000   0.4375000   0.4375000  )
         3           Si  tau(   3) = (   0.4375000   0.9375000   0.4375000  )
         4           Si  tau(   4) = (   0.9375000   0.9375000   0.4375000  )
         5           Si  tau(   5) = (   0.4375000   0.4375000   0.9375000  )
         6           Si  tau(   6) = (   0.9375000   0.4375000   0.9375000  )
         7           Si  tau(   7) = (   0.4375000   0.9375000   0.9375000  )
         8           Si  tau(   8) = (   0.9375000   0.9375000   0.9375000  )
         9           Si  tau(   9) = (   0.4375000   0.1875000   0.1875000  )
        10           Si  tau(  10) = (   0.9375000   0.1875000   0.1875000  )
        11           Si  tau(  11) = (   0.4375000   0.6875000   0.1875000  )
        12           Si  tau(  12) = (   0.9375000   0.6875000   0.1875000  )
        13           Si  tau(  13) = (   0.4375000   0.1875000   0.6875000  )
        14           Si  tau(  14) = (   0.9375000   0.1875000   0.6875000  )
        15           Si  tau(  15) = (   0.4375000   0.6875000   0.6875000  )
        16           Si  tau(  16) = (   0.9375000   0.6875000   0.6875000  )
        17           Si  tau(  17) = (   0.1875000   0.4375000   0.1875000  )
        18           Si  tau(  18) = (   0.6875000   0.4375000   0.1875000  )
        19           Si  tau(  19) = (   0.1875000   0.9375000   0.1875000  )
        20           Si  tau(  20) = (   0.6875000   0.9375000   0.1875000  )
        21           Si  tau(  21) = (   0.1875000   0.4375000   0.6875000  )
        22           Si  tau(  22) = (   0.6875000   0.4375000   0.6875000  )
        23           Si  tau(  23) = (   0.1875000   0.9375000   0.6875000  )
        24           Si  tau(  24) = (   0.6875000   0.9375000   0.6875000  )
        25           Si  tau(  25) = (   0.1875000   0.1875000   0.4375000  )
        26           Si  tau(  26) = (   0.6875000   0.1875000   0.4375000  )
        27           Si  tau(  27) = (   0.1875000   0.6875000   0.4375000  )
        28           Si  tau(  28) = (   0.6875000   0.6875000   0.4375000  )
        29           Si  tau(  29) = (   0.1875000   0.1875000   0.9375000  )
        30           Si  tau(  30) = (   0.6875000   0.1875000   0.9375000  )
        31           Si  tau(  31) = (   0.1875000   0.6875000   0.9375000  )
        32           Si  tau(  32) = (   0.6875000   0.6875000   0.9375000  )
        33           Si  tau(  33) = (   0.0625000   0.0625000   0.0625000  )
        34           Si  tau(  34) = (   0.5625000   0.0625000   0.0625000  )
        35           Si  tau(  35) = (   0.0625000   0.5625000   0.0625000  )
        36           Si  tau(  36) = (   0.5625000   0.5625000   0.0625000  )
        37           Si  tau(  37) = (   0.0625000   0.0625000   0.5625000  )
        38           Si  tau(  38) = (   0.5625000   0.0625000   0.5625000  )
        39           Si  tau(  39) = (   0.0625000   0.5625000   0.5625000  )
        40           Si  tau(  40) = (   0.5625000   0.5625000   0.5625000  )
        41           Si  tau(  41) = (   0.0625000   0.3125000   0.3125000  )
        42           Si  tau(  42) = (   0.5625000   0.3125000   0.3125000  )
        43           Si  tau(  43) = (   0.0625000   0.8125000   0.3125000  )
        44           Si  tau(  44) = (   0.5625000   0.8125000   0.3125000  )
        45           Si  tau(  45) = (   0.0625000   0.3125000   0.8125000  )
        46           Si  tau(  46) = (   0.5625000   0.3125000   0.8125000  )
        47           Si  tau(  47) = (   0.0625000   0.8125000   0.8125000  )
        48           Si  tau(  48) = (   0.5625000   0.8125000   0.8125000  )
        49           Si  tau(  49) = (   0.3125000   0.0595957   0.3125000  )
        50           Si  tau(  50) = (   0.8125000   0.0625000   0.3125000  )
        51           Si  tau(  51) = (   0.3125000   0.5625000   0.3125000  )
        52           Si  tau(  52) = (   0.8125000   0.5625000   0.3125000  )
        53           Si  tau(  53) = (   0.3125000   0.0625000   0.8125000  )
        54           Si  tau(  54) = (   0.8125000   0.0625000   0.8125000  )
        55           Si  tau(  55) = (   0.3125000   0.5625000   0.8125000  )
        56           Si  tau(  56) = (   0.8125000   0.5625000   0.8125000  )
        57           Si  tau(  57) = (   0.3125000   0.3125000   0.0625000  )
        58           Si  tau(  58) = (   0.8125000   0.3125000   0.0625000  )
        59           Si  tau(  59) = (   0.3125000   0.8125000   0.0625000  )
        60           Si  tau(  60) = (   0.8125000   0.8125000   0.0625000  )
        61           Si  tau(  61) = (   0.3125000   0.3125000   0.5625000  )
        62           Si  tau(  62) = (   0.8125000   0.3125000   0.5625000  )
        63           Si  tau(  63) = (   0.3125000   0.8125000   0.5625000  )
        64           Si  tau(  64) = (   0.8125000   0.8125000   0.5625000  )

     number of k points=     4  gaussian smearing, width (Ry)=  0.0100
                       cart. coord. in units 2pi/alat
        k(    1) = (   0.2500000   0.2500000   0.2500000), wk =   0.5000000
        k(    2) = (  -0.2500000  -0.2500000   0.2500000), wk =   0.5000000
        k(    3) = (  -0.2500000   0.2500000  -0.2500000), wk =   0.5000000
        k(    4) = (   0.2500000  -0.2500000  -0.2500000), wk =   0.5000000

     Check: negative/imaginary core charge=   -0.000001    0.000000

     Initial potential from superposition of free atoms

     starting charge  255.96421, renormalised to  256.00000
     Starting wfcs are  256 randomized atomic wfcs

     Self-consistent Calculation

     iteration #  1     ecut=    50.00 Ry     beta= 0.70
     Davidson diagonalization with overlap
     ethr =  1.00E-02,  avg # of iterations =  3.0

     Threshold (ethr) on eigenvalues was too large:
     Diagonalizing with lowered threshold

     Davidson diagonalization with overlap
     ethr =  6.78E-04,  avg # of iterations =  2.0

     total energy              =    -730.80270300 Ry
     Harris-Foulkes estimate   =    -731.20874650 Ry
     estimated scf accuracy    <       1.72030884 Ry

[...]

     total energy              =    -730.88002778 Ry
     Harris-Foulkes estimate   =    -730.88002778 Ry
     estimated scf accuracy    <       0.00000001 Ry

     iteration # 12     ecut=    50.00 Ry     beta= 0.70
     Davidson diagonalization with overlap
     ethr =  5.69E-12,  avg # of iterations =  3.0

     End of self-consistent calculation

          k = 0.2500 0.2500 0.2500 ( 52563 PWs)   bands (ev):

    -5.6274  -5.1024  -5.0996  -5.0964  -4.6030  -4.6004  -4.5972  -4.1659
    -4.0699  -4.0674  -4.0637  -3.6594  -3.6566  -3.6510  -3.6506  -3.6482
    -3.6456  -3.4642  -3.4595  -3.4565  -2.9642  -2.9632  -2.9574  -2.5986
    -2.5943  -2.5912  -2.4345  -2.4304  -2.4259  -2.4254  -2.4220  -2.4197
    -0.8923  -0.8868  -0.8837  -0.8834  -0.8788  -0.8775  -0.7889  -0.7861
    -0.7818  -0.6689  -0.6677  -0.6619  -0.5944  -0.5838  -0.5809   0.1164
     0.2004   0.2032   0.2047   0.2055   0.2098   0.2129   1.0697   1.0786
     1.0816   1.4088   1.4120   1.4152   2.0177   2.0204   2.0218   2.0235
     2.0253   2.0265   2.0804   2.0826   2.0854   2.6297   2.6308   2.6333
     2.7323   2.7339   2.7378   2.7386   2.7412   2.7422   2.7887   2.7929
     2.7959   3.0961   3.0981   3.1004   3.1012   3.1016   3.1052   3.3639
     3.3664   3.3671   3.3783   3.3804   3.3835   3.7220   3.7259   3.7288
     3.7435   3.7469   3.7500   3.8315   3.8338   3.8357   4.0956   4.1013
     4.1052   4.1074   4.1078   4.1088   4.1456   4.1481   4.1506   4.4025
     4.4641   4.4669   4.4679   4.7068   4.7093   4.7118   4.7605   4.7698
     4.7716   4.9280   4.9330   5.2359   5.2392   5.2430   5.7167   5.7224
     6.9286   6.9327   6.9345   7.3673   7.3709   7.3757   7.5982   7.8542
     7.8578   7.8618   7.9816   7.9838   7.9884   8.1425   8.1439   8.1491
     8.1629   8.1665   8.1681   8.3891   8.3910   8.3949   8.3973   8.3981
     8.3993   8.4465

          k =-0.2500-0.2500 0.2500 ( 52563 PWs)   bands (ev):

[...]

          k =-0.2500 0.2500-0.2500 ( 52563 PWs)   bands (ev):

[...]

          k = 0.2500-0.2500-0.2500 ( 52563 PWs)   bands (ev):

    -5.6275  -5.1031  -5.1000  -5.0949  -4.6039  -4.6009  -4.5959  -4.1671
    -4.0710  -4.0682  -4.0628  -3.6602  -3.6536  -3.6533  -3.6501  -3.6485
    -3.6429  -3.4635  -3.4594  -3.4551  -2.9676  -2.9646  -2.9582  -2.5982
    -2.5942  -2.5907  -2.4347  -2.4286  -2.4277  -2.4245  -2.4228  -2.4176
    -0.8939  -0.8879  -0.8856  -0.8824  -0.8800  -0.8756  -0.7899  -0.7867
    -0.7826  -0.6732  -0.6681  -0.6627  -0.5895  -0.5820  -0.5745   0.1202
     0.1963   0.1993   0.2026   0.2060   0.2098   0.2135   1.0735   1.0787
     1.0849   1.4076   1.4117   1.4165   2.0176   2.0200   2.0216   2.0229
     2.0241   2.0284   2.0782   2.0814   2.0850   2.6310   2.6332   2.6356
     2.7300   2.7322   2.7357   2.7378   2.7409   2.7417   2.7862   2.7896
     2.7948   3.0950   3.0976   3.0996   3.1003   3.1030   3.1083   3.3627
     3.3649   3.3666   3.3753   3.3792   3.3834   3.7235   3.7282   3.7307
     3.7460   3.7498   3.7544   3.8291   3.8321   3.8361   4.0991   4.1048
     4.1060   4.1078   4.1095   4.1156   4.1428   4.1463   4.1508   4.4066
     4.4616   4.4643   4.4661   4.7034   4.7069   4.7115   4.7665   4.7718
     4.7784   4.9249   4.9336   5.2313   5.2363   5.2422   5.7122   5.7221
     6.9270   6.9301   6.9337   7.3649   7.3715   7.3751   7.5967   7.8511
     7.8575   7.8602   7.9819   7.9861   7.9899   8.1404   8.1455   8.1480
     8.1632   8.1650   8.1674   8.3911   8.3929   8.3945   8.3976   8.4002
     8.4044   8.4443

     the Fermi energy is     6.3203 ev

!    total energy              =    -730.88002778 Ry
     Harris-Foulkes estimate   =    -730.88002778 Ry
     estimated scf accuracy    <          4.3E-09 Ry

     The total energy is the sum of the following terms:

     one-electron contribution =     160.47259093 Ry
     hartree contribution      =      35.78749038 Ry
     xc contribution           =    -393.13399679 Ry
     ewald contribution        =    -534.00611230 Ry
     smearing contrib. (-TS)   =      -0.00000000 Ry

     convergence has been achieved in  12 iterations

     Forces acting on atoms (cartesian axes, Ry/au):

     atom    1 type  1   force =    -0.01601878    0.00000999    0.00003865
     atom    2 type  1   force =     0.00004932   -0.00002701    0.00002521
     atom    3 type  1   force =     0.00279082   -0.00395884    0.00273706
     atom    4 type  1   force =     0.00003262    0.00005961    0.00004880
     atom    5 type  1   force =     0.00008258   -0.00002609    0.00002515
     atom    6 type  1   force =     0.00002388    0.00001971    0.00003218
     atom    7 type  1   force =    -0.00042807    0.00005863    0.00003722
     atom    8 type  1   force =     0.00005467   -0.00025888    0.00002842
     atom    9 type  1   force =    -0.00304168   -0.00372443    0.00262360
     atom   10 type  1   force =    -0.00003380    0.00006706    0.00006132
     atom   11 type  1   force =    -0.00056331    0.00012014   -0.00007313
     atom   12 type  1   force =    -0.00002350   -0.00002030    0.00002010
     atom   13 type  1   force =    -0.00057647   -0.00005396    0.00014646
     atom   14 type  1   force =    -0.00002482   -0.00026434    0.00003652
     atom   15 type  1   force =    -0.00055940   -0.00014254   -0.00008736
     atom   16 type  1   force =    -0.00002958    0.00001085    0.00002053
     atom   17 type  1   force =     0.00019289   -0.00010045    0.00018806
     atom   18 type  1   force =     0.00021355   -0.00014139   -0.00025622
     atom   19 type  1   force =    -0.00269298   -0.00396717   -0.00281214
     atom   20 type  1   force =     0.00000619    0.00004900    0.00002694
     atom   21 type  1   force =     0.00020412    0.00008297   -0.00025007
     atom   22 type  1   force =     0.00020600    0.00013517    0.00019814
     atom   23 type  1   force =    -0.00000424    0.00006818    0.00003845
     atom   24 type  1   force =     0.00001529   -0.00024909   -0.00010443
     atom   25 type  1   force =     0.00274034   -0.00361554   -0.00262185
     atom   26 type  1   force =     0.00027503   -0.00017181   -0.00016513
     atom   27 type  1   force =     0.00026713   -0.00021429    0.00007216
     atom   28 type  1   force =     0.00026395    0.00020072    0.00008567
     atom   29 type  1   force =     0.00009474   -0.00001969   -0.00004483
     atom   30 type  1   force =     0.00007132   -0.00017925   -0.00003724
     atom   31 type  1   force =     0.00007411    0.00004917   -0.00001641
     atom   32 type  1   force =     0.00007430   -0.00005699   -0.00002102
     atom   33 type  1   force =     0.00009591    0.00056091    0.00014694
     atom   34 type  1   force =     0.00036776    0.00055423   -0.00008164
     atom   35 type  1   force =     0.00003536    0.00002557    0.00003610
     atom   36 type  1   force =    -0.00004914    0.00004655    0.00002793
     atom   37 type  1   force =    -0.00008284    0.00055085    0.00013571
     atom   38 type  1   force =    -0.00017389    0.00056745   -0.00006477
     atom   39 type  1   force =    -0.00001995    0.00003459    0.00004510
     atom   40 type  1   force =     0.00395033    0.00273479    0.00272682
     atom   41 type  1   force =     0.00021364   -0.00026825   -0.00014784
     atom   42 type  1   force =     0.00373475   -0.00296714   -0.00262618
     atom   43 type  1   force =    -0.00020167   -0.00026234   -0.00014155
     atom   44 type  1   force =     0.00017054   -0.00027522    0.00006570
     atom   45 type  1   force =    -0.00004966   -0.00007138   -0.00003472
     atom   46 type  1   force =     0.00001752   -0.00009313   -0.00002828
     atom   47 type  1   force =     0.00005666   -0.00007445   -0.00003988
     atom   48 type  1   force =     0.00018149   -0.00007266   -0.00001931
     atom   49 type  1   force =    -0.00005831    0.01601758    0.00004998
     atom   50 type  1   force =     0.00002981   -0.00008092    0.00002966
     atom   51 type  1   force =     0.00383844   -0.00253473    0.00250969
     atom   52 type  1   force =    -0.00000890   -0.00003166    0.00003641
     atom   53 type  1   force =     0.00025564   -0.00008404    0.00002757
     atom   54 type  1   force =    -0.00002006    0.00044563    0.00003047
     atom   55 type  1   force =    -0.00005594   -0.00004366    0.00003678
     atom   56 type  1   force =     0.00002790   -0.00005469    0.00002675
     atom   57 type  1   force =    -0.00016758   -0.00018075    0.00018913
     atom   58 type  1   force =     0.00001977   -0.00001350   -0.00010205
     atom   59 type  1   force =     0.00013964   -0.00020946   -0.00025752
     atom   60 type  1   force =    -0.00002886   -0.00001407    0.00004583
     atom   61 type  1   force =     0.00395000    0.00227960   -0.00273537
     atom   62 type  1   force =    -0.00000068   -0.00000728    0.00003802
     atom   63 type  1   force =     0.00005797   -0.00019972    0.00017896
     atom   64 type  1   force =     0.00003815   -0.00001785   -0.00010526

     Total force =     0.027446     Total SCF correction =     0.000121

     Writing output data file pwscf.save/

     General routines

     Parallel routines

   This run was terminated on:  20:10: 8  14Feb2020

   JOB DONE.