     Program PWSCF v.6.3MaX starts on 14Feb2020 at 23:29:38

     R & G space division:  proc/nbgrp/npool/nimage =       2
     Waiting for input...
     Reading input from standard input

     Current dimensions of program PWSCF are:
     Max number of different atomic species (ntypx) = 10
     Max number of k-points (npk) =  40000
     Max angular momentum in pseudopotentials (lmaxx) =  3

     Subspace diagonalization in iterative solution of the eigenvalue problem:
     a serial algorithm will be used

     Message from routine find_sym:
     Not a group! Trying with lower acceptance parameter...
     Message from routine find_sym:
     Still not a group! symmetry disabled

     bravais-lattice index     =            0
     lattice parameter (alat)  =      20.6591  a.u.
     unit-cell volume          =    8817.2783 (a.u.)^3
     number of atoms/cell      =           64
     number of atomic types    =            1
     number of electrons       =       256.00
     number of Kohn-Sham states=          154
     kinetic-energy cutoff     =      50.0000  Ry
     charge density cutoff     =     200.0000  Ry
     convergence threshold     =      1.0E-08
     mixing beta               =       0.7000
     number of iterations used =            8  plain     mixing
     Exchange-correlation      = PBE ( 1  4  3  4 0 0)

     celldm(1)=  20.659106  celldm(2)=   0.000000  celldm(3)=   0.000000
     celldm(4)=   0.000000  celldm(5)=   0.000000  celldm(6)=   0.000000

     crystal axes: (cart. coord. in units of alat)
               a(1) = (   1.000000   0.000000   0.000000 )
               a(2) = (   0.000000   1.000000   0.000000 )
               a(3) = (   0.000000   0.000000   1.000000 )

     reciprocal axes: (cart. coord. in units 2 pi/alat)
               b(1) = (  1.000000  0.000000  0.000000 )
               b(2) = (  0.000000  1.000000  0.000000 )
               b(3) = (  0.000000  0.000000  1.000000 )

     PseudoPot. # 1 for Si read from file:
     ~/kedar/softwares/SSSP_precision_pseudos/Si.pbe-n-rrkjus_psl.1.0.0.UPF
     MD5 check sum: Not computed, couldn't open file
     Pseudo is Ultrasoft + core correction, Zval =  4.0
     Generated using "atomic" code by A. Dal Corso v.5.1
     Using radial grid of 1141 points,  6 beta functions with:
                l(1) =   0
                l(2) =   0
                l(3) =   1
                l(4) =   1
                l(5) =   2
                l(6) =   2
     Q(r) pseudized with 0 coefficients

     atomic species   valence    mass     pseudopotential
        Si             4.00    28.08550     Si( 1.00)

     No symmetry found

   Cartesian axes

     site n.     atom                  positions (alat units)
         1           Si  tau(   1) = (   0.4404043   0.4375000   0.4375000  )
         2           Si  tau(   2) = (   0.9375000   0.4375000   0.4375000  )
         3           Si  tau(   3) = (   0.4375000   0.9375000   0.4375000  )
         4           Si  tau(   4) = (   0.9375000   0.9375000   0.4375000  )
         5           Si  tau(   5) = (   0.4375000   0.4375000   0.9375000  )
         6           Si  tau(   6) = (   0.9375000   0.4375000   0.9375000  )
         7           Si  tau(   7) = (   0.4375000   0.9375000   0.9375000  )
         8           Si  tau(   8) = (   0.9375000   0.9375000   0.9375000  )
         9           Si  tau(   9) = (   0.4375000   0.1875000   0.1875000  )
        10           Si  tau(  10) = (   0.9375000   0.1875000   0.1875000  )
        11           Si  tau(  11) = (   0.4375000   0.6875000   0.1875000  )
        12           Si  tau(  12) = (   0.9375000   0.6875000   0.1875000  )
        13           Si  tau(  13) = (   0.4375000   0.1875000   0.6875000  )
        14           Si  tau(  14) = (   0.9375000   0.1875000   0.6875000  )
        15           Si  tau(  15) = (   0.4375000   0.6875000   0.6875000  )
        16           Si  tau(  16) = (   0.9375000   0.6875000   0.6875000  )
        17           Si  tau(  17) = (   0.1875000   0.4375000   0.1875000  )
        18           Si  tau(  18) = (   0.6875000   0.4375000   0.1875000  )
        19           Si  tau(  19) = (   0.1875000   0.9375000   0.1875000  )
        20           Si  tau(  20) = (   0.6875000   0.9375000   0.1875000  )
        21           Si  tau(  21) = (   0.1875000   0.4375000   0.6875000  )
        22           Si  tau(  22) = (   0.6875000   0.4375000   0.6875000  )
        23           Si  tau(  23) = (   0.1875000   0.9375000   0.6875000  )
        24           Si  tau(  24) = (   0.6875000   0.9375000   0.6875000  )
        25           Si  tau(  25) = (   0.1875000   0.1875000   0.4375000  )
        26           Si  tau(  26) = (   0.6875000   0.1875000   0.4375000  )
        27           Si  tau(  27) = (   0.1875000   0.6875000   0.4375000  )
        28           Si  tau(  28) = (   0.6875000   0.6875000   0.4375000  )
        29           Si  tau(  29) = (   0.1875000   0.1875000   0.9375000  )
        30           Si  tau(  30) = (   0.6875000   0.1875000   0.9375000  )
        31           Si  tau(  31) = (   0.1875000   0.6875000   0.9375000  )
        32           Si  tau(  32) = (   0.6875000   0.6875000   0.9375000  )
        33           Si  tau(  33) = (   0.0625000   0.0625000   0.0625000  )
        34           Si  tau(  34) = (   0.5625000   0.0625000   0.0625000  )
        35           Si  tau(  35) = (   0.0625000   0.5625000   0.0625000  )
        36           Si  tau(  36) = (   0.5625000   0.5625000   0.0625000  )
        37           Si  tau(  37) = (   0.0625000   0.0625000   0.5625000  )
        38           Si  tau(  38) = (   0.5625000   0.0625000   0.5625000  )
        39           Si  tau(  39) = (   0.0625000   0.5625000   0.5625000  )
        40           Si  tau(  40) = (   0.5625000   0.5625000   0.5625000  )
        41           Si  tau(  41) = (   0.0625000   0.3125000   0.3125000  )
        42           Si  tau(  42) = (   0.5625000   0.3125000   0.3125000  )
        43           Si  tau(  43) = (   0.0625000   0.8125000   0.3125000  )
        44           Si  tau(  44) = (   0.5625000   0.8125000   0.3125000  )
        45           Si  tau(  45) = (   0.0625000   0.3125000   0.8125000  )
        46           Si  tau(  46) = (   0.5625000   0.3125000   0.8125000  )
        47           Si  tau(  47) = (   0.0625000   0.8125000   0.8125000  )
        48           Si  tau(  48) = (   0.5625000   0.8125000   0.8125000  )
        49           Si  tau(  49) = (   0.3125000   0.0625000   0.3125000  )
        50           Si  tau(  50) = (   0.8125000   0.0625000   0.3125000  )
        51           Si  tau(  51) = (   0.3125000   0.5625000   0.3125000  )
        52           Si  tau(  52) = (   0.8125000   0.5625000   0.3125000  )
        53           Si  tau(  53) = (   0.3125000   0.0625000   0.8125000  )
        54           Si  tau(  54) = (   0.8095957   0.0625000   0.8125000  )
        55           Si  tau(  55) = (   0.3125000   0.5625000   0.8125000  )
        56           Si  tau(  56) = (   0.8125000   0.5625000   0.8125000  )
        57           Si  tau(  57) = (   0.3125000   0.3125000   0.0625000  )
        58           Si  tau(  58) = (   0.8125000   0.3125000   0.0625000  )
        59           Si  tau(  59) = (   0.3125000   0.8125000   0.0625000  )
        60           Si  tau(  60) = (   0.8125000   0.8125000   0.0625000  )
        61           Si  tau(  61) = (   0.3125000   0.3125000   0.5625000  )
        62           Si  tau(  62) = (   0.8125000   0.3125000   0.5625000  )
        63           Si  tau(  63) = (   0.3125000   0.8125000   0.5625000  )
        64           Si  tau(  64) = (   0.8125000   0.8125000   0.5625000  )

     number of k points=     4  gaussian smearing, width (Ry)=  0.0100
                       cart. coord. in units 2pi/alat
        k(    1) = (   0.2500000   0.2500000   0.2500000), wk =   0.5000000
        k(    2) = (   0.2500000  -0.2500000  -0.2500000), wk =   0.5000000
        k(    3) = (   0.2500000   0.2500000  -0.2500000), wk =   0.5000000
        k(    4) = (   0.2500000  -0.2500000   0.2500000), wk =   0.5000000

     Check: negative/imaginary core charge=   -0.000001    0.000000

     Initial potential from superposition of free atoms

     starting charge  255.96421, renormalised to  256.00000
     Starting wfcs are  256 randomized atomic wfcs

     Self-consistent Calculation

     iteration #  1     ecut=    50.00 Ry     beta= 0.70
     Davidson diagonalization with overlap
     ethr =  1.00E-02,  avg # of iterations =  3.0

     Threshold (ethr) on eigenvalues was too large:
     Diagonalizing with lowered threshold

     Davidson diagonalization with overlap
     ethr =  6.78E-04,  avg # of iterations =  2.0

     total energy              =    -730.80274513 Ry
     Harris-Foulkes estimate   =    -731.20876866 Ry
     estimated scf accuracy    <       1.72026961 Ry

[...]

     total energy              =    -730.88002689 Ry
     Harris-Foulkes estimate   =    -730.88002690 Ry
     estimated scf accuracy    <       0.00000001 Ry

     iteration # 12     ecut=    50.00 Ry     beta= 0.70
     Davidson diagonalization with overlap
     ethr =  5.73E-12,  avg # of iterations =  3.0

     End of self-consistent calculation

          k = 0.2500 0.2500 0.2500 ( 52563 PWs)   bands (ev):

    -5.6274  -5.1020  -5.0996  -5.0968  -4.6030  -4.6002  -4.5975  -4.1661
    -4.0699  -4.0668  -4.0643  -3.6612  -3.6542  -3.6515  -3.6512  -3.6468
    -3.6466  -3.4619  -3.4612  -3.4568  -2.9659  -2.9616  -2.9572  -2.5982
    -2.5955  -2.5906  -2.4352  -2.4279  -2.4263  -2.4262  -2.4214  -2.4209
    -0.8950  -0.8853  -0.8841  -0.8834  -0.8785  -0.8764  -0.7899  -0.7846
    -0.7817  -0.6728  -0.6632  -0.6626  -0.5943  -0.5838  -0.5810   0.1165
     0.1955   0.2037   0.2042   0.2051   0.2130   0.2151   1.0699   1.0795
     1.0805   1.4062   1.4144   1.4154   2.0187   2.0195   2.0217   2.0225
     2.0252   2.0280   2.0787   2.0839   2.0854   2.6284   2.6322   2.6333
     2.7317   2.7336   2.7363   2.7368   2.7436   2.7451   2.7882   2.7925
     2.7959   3.0927   3.0995   3.0999   3.1010   3.1042   3.1054   3.3646
     3.3649   3.3687   3.3749   3.3831   3.3833   3.7220   3.7266   3.7285
     3.7441   3.7464   3.7496   3.8307   3.8324   3.8378   4.0979   4.1009
     4.1049   4.1067   4.1075   4.1085   4.1448   4.1465   4.1528   4.4027
     4.4640   4.4651   4.4695   4.7057   4.7075   4.7146   4.7611   4.7702
     4.7710   4.9255   4.9359   5.2352   5.2368   5.2458   5.7138   5.7253
     6.9304   6.9305   6.9350   7.3665   7.3717   7.3758   7.5982   7.8532
     7.8584   7.8621   7.9807   7.9862   7.9871   8.1424   8.1457   8.1476
     8.1636   8.1640   8.1697   8.3865   8.3931   8.3956   8.3969   8.3975
     8.4002   8.4465

[...]

          k = 0.2500-0.2500 0.2500 ( 52563 PWs)   bands (ev):

    -5.6275  -5.1008  -5.0994  -5.0975  -4.6018  -4.6011  -4.5980  -4.1682
    -4.0689  -4.0676  -4.0665  -3.6555  -3.6524  -3.6524  -3.6523  -3.6492
    -3.6437  -3.4623  -3.4614  -3.4522  -2.9685  -2.9654  -2.9622  -2.5973
    -2.5948  -2.5900  -2.4310  -2.4290  -2.4276  -2.4272  -2.4245  -2.4148
    -0.8919  -0.8903  -0.8862  -0.8849  -0.8834  -0.8718  -0.7900  -0.7867
    -0.7850  -0.6754  -0.6701  -0.6637  -0.5845  -0.5817  -0.5669   0.1239
     0.1948   0.1973   0.2026   0.2039   0.2064   0.2134   1.0755   1.0791
     1.0900   1.4080   1.4103   1.4174   2.0177   2.0195   2.0223   2.0229
     2.0248   2.0271   2.0771   2.0788   2.0850   2.6336   2.6343   2.6376
     2.7290   2.7307   2.7340   2.7366   2.7398   2.7410   2.7830   2.7881
     2.7920   3.0979   3.0982   3.0995   3.0997   3.1004   3.1092   3.3588
     3.3646   3.3663   3.3753   3.3764   3.3830   3.7266   3.7288   3.7341
     3.7486   3.7515   3.7584   3.8269   3.8318   3.8356   4.1047   4.1063
     4.1064   4.1095   4.1100   4.1220   4.1395   4.1457   4.1509   4.4112
     4.4568   4.4632   4.4646   4.7004   4.7067   4.7086   4.7719   4.7730
     4.7865   4.9227   4.9332   5.2266   5.2357   5.2390   5.7091   5.7203
     6.9251   6.9265   6.9341   7.3633   7.3702   7.3759   7.5951   7.8493
     7.8540   7.8603   7.9818   7.9903   7.9903   8.1422   8.1427   8.1478
     8.1597   8.1653   8.1682   8.3912   8.3961   8.3968   8.3973   8.4033
     8.4070   8.4419

     the Fermi energy is     6.3203 ev

!    total energy              =    -730.88002689 Ry
     Harris-Foulkes estimate   =    -730.88002689 Ry
     estimated scf accuracy    <          4.2E-09 Ry

     The total energy is the sum of the following terms:

     one-electron contribution =     160.47273613 Ry
     hartree contribution      =      35.78740264 Ry
     xc contribution           =    -393.13398658 Ry
     ewald contribution        =    -534.00617908 Ry
     smearing contrib. (-TS)   =      -0.00000000 Ry

     convergence has been achieved in  12 iterations

     Forces acting on atoms (cartesian axes, Ry/au):

     atom    1 type  1   force =    -0.01603444    0.00003108   -0.00003089
     atom    2 type  1   force =    -0.00022995    0.00002791   -0.00002796
     atom    3 type  1   force =     0.00002686    0.00002905   -0.00002567
     atom    4 type  1   force =     0.00005030    0.00004974   -0.00003641
     atom    5 type  1   force =     0.00002707    0.00002583   -0.00002902
     atom    6 type  1   force =     0.00004961    0.00003708   -0.00004947
     atom    7 type  1   force =    -0.00046511    0.00003677   -0.00003741
     atom    8 type  1   force =    -0.00381445    0.00251029   -0.00251073
     atom    9 type  1   force =    -0.00055829    0.00008569    0.00014029
     atom   10 type  1   force =     0.00005758   -0.00004037    0.00004632
     atom   11 type  1   force =    -0.00050429    0.00007996   -0.00007949
     atom   12 type  1   force =    -0.00025346   -0.00001941    0.00001873
     atom   13 type  1   force =    -0.00051737   -0.00014822    0.00014792
     atom   14 type  1   force =    -0.00383521   -0.00251956    0.00251949
     atom   15 type  1   force =    -0.00055884   -0.00014013   -0.00008520
     atom   16 type  1   force =     0.00005816   -0.00004560    0.00004032
     atom   17 type  1   force =     0.00024974   -0.00014104    0.00019416
     atom   18 type  1   force =    -0.00002086   -0.00014235   -0.00025740
     atom   19 type  1   force =     0.00001787   -0.00003646   -0.00010222
     atom   20 type  1   force =     0.00010248   -0.00005927    0.00003724
     atom   21 type  1   force =     0.00020401    0.00008413   -0.00025233
     atom   22 type  1   force =     0.00029683    0.00007812    0.00018063
     atom   23 type  1   force =     0.00005524   -0.00002762    0.00003968
     atom   24 type  1   force =    -0.00391532   -0.00272754   -0.00281088
     atom   25 type  1   force =     0.00020379    0.00025179   -0.00008367
     atom   26 type  1   force =     0.00029664   -0.00018093   -0.00007824
     atom   27 type  1   force =     0.00024971   -0.00019363    0.00014121
     atom   28 type  1   force =    -0.00002126    0.00025729    0.00014256
     atom   29 type  1   force =     0.00005529   -0.00004006    0.00002702
     atom   30 type  1   force =    -0.00391550    0.00281058    0.00272759
     atom   31 type  1   force =     0.00001783    0.00010284    0.00003563
     atom   32 type  1   force =     0.00010266   -0.00003736    0.00005968
     atom   33 type  1   force =    -0.00025006    0.00014074   -0.00019369
     atom   34 type  1   force =     0.00002162    0.00014256    0.00025659
     atom   35 type  1   force =    -0.00001852    0.00003619    0.00010287
     atom   36 type  1   force =    -0.00010192    0.00005934   -0.00003741
     atom   37 type  1   force =    -0.00020329   -0.00008436    0.00025198
     atom   38 type  1   force =    -0.00029713   -0.00007834   -0.00018043
     atom   39 type  1   force =    -0.00005480    0.00002797   -0.00004059
     atom   40 type  1   force =     0.00391494    0.00272768    0.00281110
     atom   41 type  1   force =    -0.00005495    0.00004059   -0.00002729
     atom   42 type  1   force =     0.00391485   -0.00281145   -0.00272768
     atom   43 type  1   force =    -0.00001738   -0.00010258   -0.00003571
     atom   44 type  1   force =    -0.00010236    0.00003740   -0.00005923
     atom   45 type  1   force =    -0.00020368   -0.00025246    0.00008396
     atom   46 type  1   force =    -0.00029702    0.00018024    0.00007809
     atom   47 type  1   force =    -0.00024986    0.00019359   -0.00014151
     atom   48 type  1   force =     0.00002076   -0.00025632   -0.00014254
     atom   49 type  1   force =    -0.00005016   -0.00003718    0.00005053
     atom   50 type  1   force =    -0.00002751   -0.00002607    0.00002894
     atom   51 type  1   force =     0.00381388   -0.00251059    0.00251090
     atom   52 type  1   force =     0.00046612   -0.00003653    0.00003614
     atom   53 type  1   force =     0.00023098   -0.00002759    0.00002699
     atom   54 type  1   force =     0.01603385   -0.00003139    0.00003104
     atom   55 type  1   force =    -0.00005003   -0.00004952    0.00003658
     atom   56 type  1   force =    -0.00002718   -0.00002910    0.00002644
     atom   57 type  1   force =    -0.00005742    0.00004051   -0.00004620
     atom   58 type  1   force =     0.00055859   -0.00008489   -0.00014034
     atom   59 type  1   force =     0.00025300    0.00001899   -0.00001889
     atom   60 type  1   force =     0.00050425   -0.00007989    0.00007969
     atom   61 type  1   force =     0.00383539    0.00251911   -0.00251939
     atom   62 type  1   force =     0.00051696    0.00014763   -0.00014755
     atom   63 type  1   force =    -0.00005809    0.00004663   -0.00004034
     atom   64 type  1   force =     0.00055884    0.00014052    0.00008547

     Total force =     0.027407     Total SCF correction =     0.000117

     Writing output data file pwscf.save/

     General routines

     Parallel routines

   This run was terminated on:   0: 6:13  15Feb2020

   JOB DONE.